element_key,element_name,node_count,node1_id,node2_id,node3_id,node4_id,node5_id,node6_id,node7_id,node8_id,stress_x,stress_y,stress_z,stress_xy,stress_yz,stress_zx
1,CSTriangle,3,0,2,79,-1,-1,-1,-1,-1,7.84066E-08,7.84048E-08,0,-7.8405E-08,0,0
2,CSTriangle,3,20,1,22,-1,-1,-1,-1,-1,-5.51105E-07,-7.07073E-08,0,2.4156E-07,0,0
3,CSTriangle,3,40,21,87,-1,-1,-1,-1,-1,3.92427E-08,7.81335E-08,0,-6.30281E-08,0,0
4,CSTriangle,3,21,42,87,-1,-1,-1,-1,-1,7.25891E-08,2.4709E-08,0,-5.77247E-08,0,0
5,CSTriangle,3,60,41,88,-1,-1,-1,-1,-1,-2.01115E-07,1.60914E-08,0,1.74457E-08,0,0
6,CSTriangle,3,41,61,88,-1,-1,-1,-1,-1,-6.2193E-08,4.05983E-08,0,6.02288E-08,0,0
7,CSTriangle,3,61,62,89,-1,-1,-1,-1,-1,8.16897E-08,1.59793E-07,0,6.34041E-08,0,0
8,CSTriangle,3,88,61,89,-1,-1,-1,-1,-1,6.55065E-09,1.14839E-09,0,1.15962E-08,0,0
9,CSTriangle,3,62,63,90,-1,-1,-1,-1,-1,1.17245E-07,3.51734E-08,0,-2.48705E-08,0,0
10,CSTriangle,3,89,62,90,-1,-1,-1,-1,-1,2.00047E-07,1.65048E-08,0,2.34843E-08,0,0
11,CSTriangle,3,78,79,91,-1,-1,-1,-1,-1,1.21701E-07,3.65103E-08,0,3.05011E-08,0,0
12,CSTriangle,3,79,2,91,-1,-1,-1,-1,-1,2.7855E-07,1.32316E-08,0,-7.27752E-08,0,0
13,CSTriangle,3,2,3,92,-1,-1,-1,-1,-1,-6.23409E-08,-2.08943E-08,0,-3.5273E-08,0,0
14,CSTriangle,3,2,92,91,-1,-1,-1,-1,-1,4.95534E-08,-3.92665E-08,0,-5.96329E-08,0,0
15,CSTriangle,3,59,60,93,-1,-1,-1,-1,-1,-1.28812E-07,-5.80627E-10,0,3.88465E-08,0,0
16,CSTriangle,3,93,60,88,-1,-1,-1,-1,-1,-3.32635E-08,-1.19624E-09,0,2.76222E-08,0,0
17,CSTriangle,3,22,23,94,-1,-1,-1,-1,-1,4.66923E-08,5.36187E-08,0,4.27114E-08,0,0
18,CSTriangle,3,20,22,94,-1,-1,-1,-1,-1,7.17778E-08,-4.10536E-08,0,8.48334E-08,0,0
19,CSTriangle,3,19,20,95,-1,-1,-1,-1,-1,-2.89703E-07,-4.81779E-08,0,7.824E-08,0,0
20,CSTriangle,3,95,20,94,-1,-1,-1,-1,-1,-8.53772E-08,-8.36765E-08,0,1.2822E-07,0,0
21,CSTriangle,3,18,19,96,-1,-1,-1,-1,-1,-1.45402E-07,-1.77653E-08,0,4.33155E-08,0,0
22,CSTriangle,3,23,24,97,-1,-1,-1,-1,-1,1.28488E-07,7.99978E-08,0,-2.00723E-09,0,0
23,CSTriangle,3,24,25,98,-1,-1,-1,-1,-1,1.29597E-07,6.90769E-08,0,-5.69291E-09,0,0
24,CSTriangle,3,77,78,99,-1,-1,-1,-1,-1,8.94177E-08,2.68253E-08,0,1.86353E-08,0,0
25,CSTriangle,3,99,78,91,-1,-1,-1,-1,-1,1.04235E-07,4.50722E-09,0,1.62852E-08,0,0
26,CSTriangle,3,76,77,100,-1,-1,-1,-1,-1,7.39007E-08,2.21702E-08,0,1.21479E-08,0,0
27,CSTriangle,3,100,77,99,-1,-1,-1,-1,-1,8.11158E-08,1.06263E-08,0,1.2078E-08,0,0
28,CSTriangle,3,3,4,101,-1,-1,-1,-1,-1,1.00733E-08,-1.0261E-08,0,-1.88114E-08,0,0
29,CSTriangle,3,92,3,101,-1,-1,-1,-1,-1,4.69227E-08,3.74169E-09,0,-2.3465E-08,0,0
30,CSTriangle,3,4,5,102,-1,-1,-1,-1,-1,4.04711E-08,-4.91171E-09,0,-9.32557E-09,0,0
31,CSTriangle,3,101,4,102,-1,-1,-1,-1,-1,5.26248E-08,-4.89877E-10,0,-1.21406E-08,0,0
32,CSTriangle,3,58,59,103,-1,-1,-1,-1,-1,-5.37066E-08,-1.32033E-08,0,2.84049E-08,0,0
33,CSTriangle,3,103,59,93,-1,-1,-1,-1,-1,1.98753E-09,-4.33741E-09,0,3.09501E-08,0,0
34,CSTriangle,3,57,58,104,-1,-1,-1,-1,-1,-9.21868E-09,-6.8099E-09,0,1.48646E-08,0,0
35,CSTriangle,3,104,58,103,-1,-1,-1,-1,-1,1.37483E-08,-2.03829E-09,0,1.95661E-08,0,0
36,CSTriangle,3,17,18,105,-1,-1,-1,-1,-1,-6.92891E-08,-1.00454E-08,0,2.53192E-08,0,0
37,CSTriangle,3,18,96,105,-1,-1,-1,-1,-1,-3.00888E-08,-1.27795E-09,0,3.14912E-08,0,0
38,CSTriangle,3,25,26,106,-1,-1,-1,-1,-1,1.31634E-07,5.54033E-08,0,-5.678E-09,0,0
39,CSTriangle,3,63,64,107,-1,-1,-1,-1,-1,8.3211E-08,2.49633E-08,0,-1.71203E-08,0,0
40,CSTriangle,3,90,63,107,-1,-1,-1,-1,-1,9.39409E-08,1.05805E-08,0,-1.04811E-08,0,0
41,CSTriangle,3,16,17,108,-1,-1,-1,-1,-1,-2.43836E-08,-5.17036E-09,0,1.55293E-08,0,0
42,CSTriangle,3,56,57,109,-1,-1,-1,-1,-1,1.61004E-08,-3.63042E-09,0,8.29583E-09,0,0
43,CSTriangle,3,75,76,110,-1,-1,-1,-1,-1,6.75074E-08,2.02522E-08,0,8.307E-09,0,0
44,CSTriangle,3,76,100,110,-1,-1,-1,-1,-1,6.78529E-08,1.17075E-08,0,8.28962E-09,0,0
45,CSTriangle,3,5,6,111,-1,-1,-1,-1,-1,5.5796E-08,-2.41704E-09,0,-4.80439E-09,0,0
46,CSTriangle,3,102,5,111,-1,-1,-1,-1,-1,5.78771E-08,-2.46132E-10,0,-6.14328E-09,0,0
47,CSTriangle,3,26,27,112,-1,-1,-1,-1,-1,1.31716E-07,4.35422E-08,0,-4.70018E-09,0,0
48,CSTriangle,3,27,28,113,-1,-1,-1,-1,-1,1.31874E-07,3.38214E-08,0,-3.77806E-09,0,0
49,CSTriangle,3,55,56,114,-1,-1,-1,-1,-1,3.04299E-08,-2.11571E-09,0,4.72697E-09,0,0
50,CSTriangle,3,114,56,109,-1,-1,-1,-1,-1,3.19273E-08,-2.17824E-10,0,5.89799E-09,0,0
51,CSTriangle,3,54,55,115,-1,-1,-1,-1,-1,3.85101E-08,-1.40659E-09,0,2.57461E-09,0,0
52,CSTriangle,3,6,7,116,-1,-1,-1,-1,-1,6.38034E-08,-1.35771E-09,0,-2.53115E-09,0,0
53,CSTriangle,3,111,6,116,-1,-1,-1,-1,-1,6.2199E-08,-8.02345E-11,0,-3.26091E-09,0,0
54,CSTriangle,3,7,8,117,-1,-1,-1,-1,-1,6.78861E-08,-1.00019E-09,0,-1.1573E-09,0,0
55,CSTriangle,3,116,7,117,-1,-1,-1,-1,-1,6.52095E-08,-9.77707E-12,0,-1.69169E-09,0,0
56,CSTriangle,3,8,9,118,-1,-1,-1,-1,-1,6.92587E-08,-9.10802E-10,0,-7.26459E-11,0,0
57,CSTriangle,3,117,8,118,-1,-1,-1,-1,-1,6.67289E-08,1.73372E-11,0,-5.72925E-10,0,0
58,CSTriangle,3,9,10,119,-1,-1,-1,-1,-1,6.82508E-08,-9.22256E-10,0,9.61364E-10,0,0
59,CSTriangle,3,118,9,119,-1,-1,-1,-1,-1,6.66768E-08,2.27658E-11,0,4.29736E-10,0,0
60,CSTriangle,3,10,11,120,-1,-1,-1,-1,-1,6.48534E-08,-9.38996E-10,0,2.02184E-09,0,0
61,CSTriangle,3,11,12,121,-1,-1,-1,-1,-1,5.89973E-08,-9.42634E-10,0,3.11712E-09,0,0
62,CSTriangle,3,11,121,120,-1,-1,-1,-1,-1,6.1378E-08,-7.10543E-12,0,2.50338E-09,0,0
63,CSTriangle,3,12,13,122,-1,-1,-1,-1,-1,5.05784E-08,-1.00056E-09,0,4.28349E-09,0,0
64,CSTriangle,3,13,14,123,-1,-1,-1,-1,-1,3.93123E-08,-1.21054E-09,0,5.65939E-09,0,0
65,CSTriangle,3,14,15,124,-1,-1,-1,-1,-1,2.44507E-08,-1.70206E-09,0,7.52104E-09,0,0
66,CSTriangle,3,15,16,125,-1,-1,-1,-1,-1,4.37085E-09,-2.76987E-09,0,1.04116E-08,0,0
67,CSTriangle,3,125,16,108,-1,-1,-1,-1,-1,1.05201E-08,-4.62478E-10,0,1.19316E-08,0,0
68,CSTriangle,3,74,75,126,-1,-1,-1,-1,-1,6.29997E-08,1.88999E-08,0,5.43165E-09,0,0
69,CSTriangle,3,126,75,110,-1,-1,-1,-1,-1,6.31166E-08,1.24611E-08,0,5.50312E-09,0,0
70,CSTriangle,3,73,74,127,-1,-1,-1,-1,-1,5.95564E-08,1.78669E-08,0,3.21535E-09,0,0
71,CSTriangle,3,64,65,128,-1,-1,-1,-1,-1,7.02508E-08,2.10752E-08,0,-1.25644E-08,0,0
72,CSTriangle,3,107,64,128,-1,-1,-1,-1,-1,7.3291E-08,1.17153E-08,0,-1.08941E-08,0,0
73,CSTriangle,3,28,29,129,-1,-1,-1,-1,-1,1.32165E-07,2.63159E-08,0,-2.71587E-09,0,0
74,CSTriangle,3,29,30,130,-1,-1,-1,-1,-1,1.32482E-07,2.15447E-08,0,-1.37548E-09,0,0
75,CSTriangle,3,29,130,129,-1,-1,-1,-1,-1,1.31528E-07,1.52345E-08,0,-2.08775E-09,0,0
76,CSTriangle,3,30,31,131,-1,-1,-1,-1,-1,1.32662E-07,2.01592E-08,0,2.1366E-10,0,0
77,CSTriangle,3,31,32,132,-1,-1,-1,-1,-1,1.32679E-07,2.25749E-08,0,1.90987E-09,0,0
78,CSTriangle,3,31,132,131,-1,-1,-1,-1,-1,1.31492E-07,1.49898E-08,0,1.02983E-09,0,0
79,CSTriangle,3,32,33,133,-1,-1,-1,-1,-1,1.32557E-07,2.88661E-08,0,3.56985E-09,0,0
80,CSTriangle,3,33,34,134,-1,-1,-1,-1,-1,1.32381E-07,3.88247E-08,0,5.11456E-09,0,0
81,CSTriangle,3,34,35,135,-1,-1,-1,-1,-1,1.32325E-07,5.22297E-08,0,6.62637E-09,0,0
82,CSTriangle,3,53,54,136,-1,-1,-1,-1,-1,4.25406E-08,-1.15563E-09,0,1.03569E-09,0,0
83,CSTriangle,3,52,53,137,-1,-1,-1,-1,-1,4.33644E-08,-1.05263E-09,0,-2.82739E-10,0,0
84,CSTriangle,3,137,53,136,-1,-1,-1,-1,-1,4.37849E-08,-3.54561E-11,0,3.36463E-10,0,0
85,CSTriangle,3,51,52,138,-1,-1,-1,-1,-1,4.13033E-08,-9.84954E-10,0,-1.50564E-09,0,0
86,CSTriangle,3,52,137,138,-1,-1,-1,-1,-1,4.34113E-08,-3.88525E-11,0,-8.91617E-10,0,0
87,CSTriangle,3,50,51,139,-1,-1,-1,-1,-1,3.64984E-08,-9.85722E-10,0,-2.71066E-09,0,0
88,CSTriangle,3,139,51,138,-1,-1,-1,-1,-1,4.09819E-08,-5.74261E-11,0,-2.05456E-09,0,0
89,CSTriangle,3,49,50,140,-1,-1,-1,-1,-1,2.88584E-08,-1.1128E-09,0,-4.0294E-09,0,0
90,CSTriangle,3,48,49,141,-1,-1,-1,-1,-1,1.7922E-08,-1.399E-09,0,-5.64779E-09,0,0
91,CSTriangle,3,47,48,142,-1,-1,-1,-1,-1,2.67667E-09,-2.11912E-09,0,-7.94566E-09,0,0
92,CSTriangle,3,72,73,143,-1,-1,-1,-1,-1,5.69209E-08,1.70763E-08,0,1.47565E-09,0,0
93,CSTriangle,3,71,72,144,-1,-1,-1,-1,-1,5.50581E-08,1.65174E-08,0,7.11443E-11,0,0
94,CSTriangle,3,144,72,143,-1,-1,-1,-1,-1,5.4947E-08,1.33216E-08,0,2.08797E-10,0,0
95,CSTriangle,3,70,71,145,-1,-1,-1,-1,-1,5.40182E-08,1.62055E-08,0,-1.13729E-09,0,0
96,CSTriangle,3,71,144,145,-1,-1,-1,-1,-1,5.36411E-08,1.33714E-08,0,-8.48289E-10,0,0
97,CSTriangle,3,69,70,146,-1,-1,-1,-1,-1,5.38694E-08,1.61608E-08,0,-2.30517E-09,0,0
98,CSTriangle,3,146,70,145,-1,-1,-1,-1,-1,5.30769E-08,1.32934E-08,0,-1.76633E-09,0,0
99,CSTriangle,3,68,69,147,-1,-1,-1,-1,-1,5.46324E-08,1.63897E-08,0,-3.58382E-09,0,0
100,CSTriangle,3,67,68,148,-1,-1,-1,-1,-1,5.63191E-08,1.68957E-08,0,-5.11095E-09,0,0
101,CSTriangle,3,66,67,149,-1,-1,-1,-1,-1,5.90546E-08,1.77164E-08,0,-7.00594E-09,0,0
102,CSTriangle,3,65,66,150,-1,-1,-1,-1,-1,6.32717E-08,1.89815E-08,0,-9.40969E-09,0,0
103,CSTriangle,3,128,65,150,-1,-1,-1,-1,-1,6.44141E-08,1.22194E-08,0,-8.86962E-09,0,0
104,CSTriangle,3,150,66,149,-1,-1,-1,-1,-1,5.93776E-08,1.24009E-08,0,-6.92947E-09,0,0
105,CSTriangle,3,46,47,151,-1,-1,-1,-1,-1,-1.92174E-08,-3.67035E-09,0,-1.17261E-08,0,0
106,CSTriangle,3,47,142,151,-1,-1,-1,-1,-1,8.89077E-09,-3.77611E-10,0,-9.12777E-09,0,0
107,CSTriangle,3,35,36,152,-1,-1,-1,-1,-1,1.32476E-07,6.9266E-08,0,8.36036E-09,0,0
108,CSTriangle,3,135,35,152,-1,-1,-1,-1,-1,1.31791E-07,3.81562E-08,0,7.25902E-09,0,0
109,CSTriangle,3,45,46,153,-1,-1,-1,-1,-1,-5.27029E-08,-6.98978E-09,0,-1.86375E-08,0,0
110,CSTriangle,3,36,37,154,-1,-1,-1,-1,-1,1.32888E-07,9.08408E-08,0,1.0685E-08,0,0
111,CSTriangle,3,44,45,155,-1,-1,-1,-1,-1,-1.08154E-07,-1.37217E-08,0,-3.20163E-08,0,0
112,CSTriangle,3,43,44,156,-1,-1,-1,-1,-1,-2.08299E-07,-3.18364E-08,0,-6.1255E-08,0,0
113,CSTriangle,3,42,43,157,-1,-1,-1,-1,-1,-4.08732E-07,-7.30256E-08,0,-1.31155E-07,0,0
114,CSTriangle,3,87,42,157,-1,-1,-1,-1,-1,1.3422E-08,-5.65339E-08,0,-1.03388E-07,0,0
115,CSTriangle,3,157,43,156,-1,-1,-1,-1,-1,-4.5112E-08,-1.18788E-08,0,-7.59318E-08,0,0
116,CSTriangle,3,156,44,155,-1,-1,-1,-1,-1,-4.6282E-08,-2.54185E-09,0,-4.00933E-08,0,0
117,CSTriangle,3,37,38,158,-1,-1,-1,-1,-1,1.32203E-07,1.18389E-07,0,1.32737E-08,0,0
118,CSTriangle,3,154,37,158,-1,-1,-1,-1,-1,1.3239E-07,5.05185E-08,0,1.18787E-08,0,0
119,CSTriangle,3,38,39,159,-1,-1,-1,-1,-1,1.34642E-07,1.53058E-07,0,1.58193E-08,0,0
120,CSTriangle,3,39,40,160,-1,-1,-1,-1,-1,9.51741E-08,1.68524E-07,0,2.05362E-09,0,0
121,CSTriangle,3,160,40,87,-1,-1,-1,-1,-1,9.56859E-08,3.14971E-08,0,-1.50324E-08,0,0
122,CSTriangle,3,38,159,158,-1,-1,-1,-1,-1,1.42014E-07,5.33161E-08,0,1.48757E-08,0,0
123,CSTriangle,3,86,85,161,-1,-1,-1,-1,-1,1.93735E-09,-5.46827E-08,0,-5.83044E-08,0,0
124,CSTriangle,3,82,81,162,-1,-1,-1,-1,-1,1.71515E-08,-6.09714E-08,0,5.32708E-08,0,0
125,CSTriangle,3,84,83,163,-1,-1,-1,-1,-1,2.69571E-08,-1.59566E-08,0,2.21439E-09,0,0
126,CSTriangle,3,83,82,164,-1,-1,-1,-1,-1,4.75673E-08,-5.35273E-09,0,2.28745E-08,0,0
127,CSTriangle,3,85,84,165,-1,-1,-1,-1,-1,4.13926E-08,-5.67669E-09,0,-1.67009E-08,0,0
128,CSTriangle,3,81,80,166,-1,-1,-1,-1,-1,1.16855E-07,2.50033E-08,0,2.12828E-07,0,0
129,CSTriangle,3,80,86,167,-1,-1,-1,-1,-1,-2.20699E-08,-2.37708E-08,0,-1.57535E-07,0,0
130,CSTriangle,3,167,86,168,-1,-1,-1,-1,-1,8.66703E-08,-3.95833E-08,0,1.28561E-08,0,0
131,CSTriangle,3,86,161,168,-1,-1,-1,-1,-1,8.4496E-08,-9.50071E-08,0,-3.01095E-08,0,0
132,CSTriangle,3,166,80,169,-1,-1,-1,-1,-1,5.20108E-07,-1.63638E-08,0,7.99008E-08,0,0
133,CSTriangle,3,80,167,169,-1,-1,-1,-1,-1,4.08361E-07,2.51291E-08,0,-1.53169E-07,0,0
134,CSTriangle,3,164,82,170,-1,-1,-1,-1,-1,5.2338E-08,-1.77493E-08,0,2.29929E-08,0,0
135,CSTriangle,3,82,162,170,-1,-1,-1,-1,-1,7.53391E-08,-1.37726E-08,0,3.09799E-08,0,0
136,CSTriangle,3,165,84,171,-1,-1,-1,-1,-1,3.01891E-08,-1.12766E-08,0,-1.47118E-08,0,0
137,CSTriangle,3,84,163,171,-1,-1,-1,-1,-1,2.52042E-08,-1.04289E-08,0,8.41169E-10,0,0
138,CSTriangle,3,115,55,114,-1,-1,-1,-1,-1,3.81556E-08,-1.02972E-10,0,3.3484E-09,0,0
139,CSTriangle,3,127,74,126,-1,-1,-1,-1,-1,5.96315E-08,1.28992E-08,0,3.27965E-09,0,0
140,CSTriangle,3,73,127,143,-1,-1,-1,-1,-1,5.69506E-08,1.31679E-08,0,1.54636E-09,0,0
141,CSTriangle,3,54,115,136,-1,-1,-1,-1,-1,4.20407E-08,-5.37739E-11,0,1.68525E-09,0,0
142,CSTriangle,3,124,15,125,-1,-1,-1,-1,-1,2.62905E-08,-2.65402E-10,0,8.42326E-09,0,0
143,CSTriangle,3,159,39,160,-1,-1,-1,-1,-1,1.3501E-07,3.70916E-08,0,7.38885E-09,0,0
144,CSTriangle,3,19,95,96,-1,-1,-1,-1,-1,-3.62423E-08,7.96982E-09,0,4.98352E-08,0,0
145,CSTriangle,3,33,134,133,-1,-1,-1,-1,-1,1.31561E-07,2.35849E-08,0,4.28457E-09,0,0
146,CSTriangle,3,148,68,147,-1,-1,-1,-1,-1,5.43422E-08,1.28641E-08,0,-3.83611E-09,0,0
147,CSTriangle,3,17,105,108,-1,-1,-1,-1,-1,-8.29493E-09,-8.71211E-10,0,1.84642E-08,0,0
148,CSTriangle,3,155,45,153,-1,-1,-1,-1,-1,-2.55592E-08,-1.2309E-09,0,-2.26931E-08,0,0
149,CSTriangle,3,153,46,151,-1,-1,-1,-1,-1,-6.52517E-09,-6.56627E-10,0,-1.38149E-08,0,0
150,CSTriangle,3,57,104,109,-1,-1,-1,-1,-1,2.30147E-08,-4.67139E-10,0,1.03459E-08,0,0
151,CSTriangle,3,12,122,121,-1,-1,-1,-1,-1,5.58861E-08,-3.96483E-11,0,3.58945E-09,0,0
152,CSTriangle,3,123,14,124,-1,-1,-1,-1,-1,3.86701E-08,-1.55296E-10,0,6.27784E-09,0,0
153,CSTriangle,3,32,133,132,-1,-1,-1,-1,-1,1.31512E-07,1.82176E-08,0,2.70637E-09,0,0
154,CSTriangle,3,134,34,135,-1,-1,-1,-1,-1,1.31647E-07,3.05309E-08,0,5.73857E-09,0,0
155,CSTriangle,3,140,50,139,-1,-1,-1,-1,-1,3.65283E-08,-9.21432E-11,0,-3.24711E-09,0,0
156,CSTriangle,3,141,49,140,-1,-1,-1,-1,-1,2.99031E-08,-1.47423E-10,0,-4.63139E-09,0,0
157,CSTriangle,3,48,141,142,-1,-1,-1,-1,-1,2.0798E-08,-2.31694E-10,0,-6.4116E-09,0,0
158,CSTriangle,3,152,36,154,-1,-1,-1,-1,-1,1.32024E-07,4.54615E-08,0,9.15946E-09,0,0
159,CSTriangle,3,147,69,146,-1,-1,-1,-1,-1,5.33018E-08,1.31115E-08,0,-2.71324E-09,0,0
160,CSTriangle,3,67,148,149,-1,-1,-1,-1,-1,5.62802E-08,1.26172E-08,0,-5.22931E-09,0,0
161,CSTriangle,3,13,123,122,-1,-1,-1,-1,-1,4.83873E-08,-8.55778E-11,0,4.78337E-09,0,0
162,CSTriangle,3,25,106,98,-1,-1,-1,-1,-1,1.32271E-07,2.04922E-08,0,-6.15489E-09,0,0
163,CSTriangle,3,30,131,130,-1,-1,-1,-1,-1,1.31498E-07,1.40694E-08,0,-6.19366E-10,0,0
164,CSTriangle,3,28,129,113,-1,-1,-1,-1,-1,1.3159E-07,1.77316E-08,0,-3.25088E-09,0,0
165,CSTriangle,3,23,97,94,-1,-1,-1,-1,-1,1.47179E-07,-7.73832E-09,0,1.06422E-08,0,0
166,CSTriangle,3,119,10,120,-1,-1,-1,-1,-1,6.49439E-08,1.33582E-11,0,1.44885E-09,0,0
167,CSTriangle,3,27,113,112,-1,-1,-1,-1,-1,1.31704E-07,2.04558E-08,0,-4.17936E-09,0,0
168,CSTriangle,3,26,112,106,-1,-1,-1,-1,-1,1.31889E-07,2.20959E-08,0,-5.08288E-09,0,0
169,CSTriangle,3,24,98,97,-1,-1,-1,-1,-1,1.46581E-07,1.4478E-08,0,-5.27314E-09,0,0
170,CSTriangle,3,163,83,172,-1,-1,-1,-1,-1,2.5306E-08,-1.15124E-08,0,1.05174E-08,0,0
171,CSTriangle,3,83,164,172,-1,-1,-1,-1,-1,4.98477E-08,-8.58078E-09,0,1.99118E-08,0,0
172,CSTriangle,3,161,85,173,-1,-1,-1,-1,-1,6.5878E-08,-6.63E-09,0,-2.67714E-08,0,0
173,CSTriangle,3,85,165,173,-1,-1,-1,-1,-1,4.62385E-08,-2.01507E-08,0,-2.11209E-08,0,0
174,CSTriangle,3,162,81,174,-1,-1,-1,-1,-1,7.46464E-08,-4.92728E-08,0,1.308E-08,0,0
175,CSTriangle,3,81,166,174,-1,-1,-1,-1,-1,2.35739E-08,-3.7018E-09,0,3.23608E-08,0,0
176,CSTriangle,3,91,92,175,-1,-1,-1,-1,-1,1.35312E-07,-2.67088E-08,0,-1.28895E-08,0,0
177,CSTriangle,3,88,89,93,-1,-1,-1,-1,-1,-2.11909E-08,1.21306E-08,0,5.17579E-08,0,0
178,CSTriangle,3,87,157,160,-1,-1,-1,-1,-1,-5.68363E-09,1.16175E-08,0,-2.85461E-08,0,0
179,CSTriangle,3,92,101,175,-1,-1,-1,-1,-1,4.45449E-08,-3.42592E-08,0,-2.89501E-08,0,0
180,CSTriangle,3,99,91,175,-1,-1,-1,-1,-1,1.26191E-07,8.04345E-09,0,2.00969E-08,0,0
181,CSTriangle,3,157,156,176,-1,-1,-1,-1,-1,-6.95468E-08,-6.84389E-08,0,-9.48291E-08,0,0
182,CSTriangle,3,160,157,176,-1,-1,-1,-1,-1,1.03451E-07,-8.38048E-08,0,-3.90082E-08,0,0
183,CSTriangle,3,159,160,176,-1,-1,-1,-1,-1,1.0842E-07,3.3897E-08,0,-1.35404E-08,0,0
184,CSTriangle,3,89,90,177,-1,-1,-1,-1,-1,9.32634E-08,-2.40211E-08,0,2.73101E-08,0,0
185,CSTriangle,3,93,89,177,-1,-1,-1,-1,-1,1.09074E-07,-1.55538E-08,0,4.7795E-08,0,0
186,CSTriangle,3,103,93,177,-1,-1,-1,-1,-1,-2.71716E-09,-3.62792E-08,0,5.53352E-08,0,0
187,CSTriangle,3,101,102,178,-1,-1,-1,-1,-1,4.81065E-08,-1.41643E-08,0,-1.85079E-08,0,0
188,CSTriangle,3,90,107,179,-1,-1,-1,-1,-1,8.91446E-08,9.09789E-09,0,-1.38308E-08,0,0
189,CSTriangle,3,102,111,180,-1,-1,-1,-1,-1,5.57126E-08,-7.92109E-09,0,-1.16401E-08,0,0
190,CSTriangle,3,107,128,181,-1,-1,-1,-1,-1,7.71885E-08,1.28736E-08,0,-1.35989E-08,0,0
191,CSTriangle,3,111,116,182,-1,-1,-1,-1,-1,6.0841E-08,-4.65833E-09,0,-7.06093E-09,0,0
192,CSTriangle,3,128,150,183,-1,-1,-1,-1,-1,6.82403E-08,1.33665E-08,0,-1.06887E-08,0,0
193,CSTriangle,3,116,117,184,-1,-1,-1,-1,-1,6.42039E-08,-3.36664E-09,0,-3.88145E-09,0,0
194,CSTriangle,3,150,149,185,-1,-1,-1,-1,-1,6.27504E-08,1.34127E-08,0,-8.0708E-09,0,0
195,CSTriangle,3,183,150,185,-1,-1,-1,-1,-1,6.36218E-08,5.04341E-09,0,-7.73406E-09,0,0
196,CSTriangle,3,117,118,186,-1,-1,-1,-1,-1,6.58334E-08,-2.97257E-09,0,-1.26948E-09,0,0
197,CSTriangle,3,118,119,187,-1,-1,-1,-1,-1,6.57791E-08,-2.97456E-09,0,1.21832E-09,0,0
198,CSTriangle,3,118,187,186,-1,-1,-1,-1,-1,6.69251E-08,-9.40318E-10,0,-2.67661E-11,0,0
199,CSTriangle,3,158,159,188,-1,-1,-1,-1,-1,1.31481E-07,4.97342E-08,0,7.50388E-09,0,0
200,CSTriangle,3,156,155,189,-1,-1,-1,-1,-1,-5.65784E-08,-3.71962E-08,0,-6.32612E-08,0,0
201,CSTriangle,3,100,99,190,-1,-1,-1,-1,-1,9.05436E-08,1.29365E-08,0,1.42686E-08,0,0
202,CSTriangle,3,104,103,191,-1,-1,-1,-1,-1,6.74672E-09,-2.25551E-08,0,3.6256E-08,0,0
203,CSTriangle,3,154,158,192,-1,-1,-1,-1,-1,1.31875E-07,5.03643E-08,0,1.42637E-08,0,0
204,CSTriangle,3,110,100,193,-1,-1,-1,-1,-1,7.29185E-08,1.3227E-08,0,9.40981E-09,0,0
205,CSTriangle,3,126,110,194,-1,-1,-1,-1,-1,6.71839E-08,1.36812E-08,0,6.46046E-09,0,0
206,CSTriangle,3,194,110,193,-1,-1,-1,-1,-1,6.79088E-08,4.88343E-09,0,6.222E-09,0,0
207,CSTriangle,3,119,120,195,-1,-1,-1,-1,-1,6.40046E-08,-3.12241E-09,0,3.7837E-09,0,0
208,CSTriangle,3,187,119,195,-1,-1,-1,-1,-1,6.62772E-08,-9.60398E-10,0,2.43702E-09,0,0
209,CSTriangle,3,120,121,196,-1,-1,-1,-1,-1,6.04135E-08,-3.22694E-09,0,6.48183E-09,0,0
210,CSTriangle,3,195,120,196,-1,-1,-1,-1,-1,6.45836E-08,-1.01252E-09,0,5.06159E-09,0,0
211,CSTriangle,3,121,122,197,-1,-1,-1,-1,-1,5.48888E-08,-3.36803E-09,0,9.32684E-09,0,0
212,CSTriangle,3,122,123,198,-1,-1,-1,-1,-1,4.72682E-08,-3.81948E-09,0,1.24597E-08,0,0
213,CSTriangle,3,152,154,199,-1,-1,-1,-1,-1,1.33118E-07,4.57898E-08,0,1.49621E-08,0,0
214,CSTriangle,3,135,152,200,-1,-1,-1,-1,-1,1.33665E-07,3.87183E-08,0,1.39751E-08,0,0
215,CSTriangle,3,200,152,199,-1,-1,-1,-1,-1,1.33501E-07,1.70558E-08,0,1.45541E-08,0,0
216,CSTriangle,3,109,104,201,-1,-1,-1,-1,-1,1.93976E-08,-1.2526E-08,0,2.11647E-08,0,0
217,CSTriangle,3,114,109,202,-1,-1,-1,-1,-1,2.96694E-08,-7.74531E-09,0,1.34168E-08,0,0
218,CSTriangle,3,202,109,201,-1,-1,-1,-1,-1,4.40694E-08,-4.39829E-09,0,1.57435E-08,0,0
219,CSTriangle,3,127,126,203,-1,-1,-1,-1,-1,6.2861E-08,1.3868E-08,0,4.1161E-09,0,0
220,CSTriangle,3,126,194,203,-1,-1,-1,-1,-1,6.33084E-08,7.25585E-09,0,3.99421E-09,0,0
221,CSTriangle,3,149,148,204,-1,-1,-1,-1,-1,5.90366E-08,1.34441E-08,0,-5.91412E-09,0,0
222,CSTriangle,3,185,149,204,-1,-1,-1,-1,-1,5.93302E-08,7.09171E-09,0,-5.8792E-09,0,0
223,CSTriangle,3,148,147,205,-1,-1,-1,-1,-1,5.65563E-08,1.35282E-08,0,-4.1858E-09,0,0
224,CSTriangle,3,204,148,205,-1,-1,-1,-1,-1,5.65396E-08,8.50147E-09,0,-4.30695E-09,0,0
225,CSTriangle,3,147,146,206,-1,-1,-1,-1,-1,5.50901E-08,1.36479E-08,0,-2.79278E-09,0,0
226,CSTriangle,3,146,145,207,-1,-1,-1,-1,-1,5.46658E-08,1.377E-08,0,-1.61303E-09,0,0
227,CSTriangle,3,145,144,208,-1,-1,-1,-1,-1,5.52911E-08,1.38663E-08,0,-4.91723E-10,0,0
228,CSTriangle,3,145,208,207,-1,-1,-1,-1,-1,5.41684E-08,1.04421E-08,0,-1.24088E-09,0,0
229,CSTriangle,3,144,143,209,-1,-1,-1,-1,-1,5.69432E-08,1.39204E-08,0,7.42546E-10,0,0
230,CSTriangle,3,143,127,210,-1,-1,-1,-1,-1,5.94837E-08,1.39277E-08,0,2.24363E-09,0,0
231,CSTriangle,3,144,209,208,-1,-1,-1,-1,-1,5.52215E-08,1.02839E-08,0,-3.70459E-10,0,0
232,CSTriangle,3,134,135,211,-1,-1,-1,-1,-1,1.34117E-07,3.12717E-08,0,1.21502E-08,0,0
233,CSTriangle,3,133,134,212,-1,-1,-1,-1,-1,1.34903E-07,2.45871E-08,0,9.619E-09,0,0
234,CSTriangle,3,212,134,211,-1,-1,-1,-1,-1,1.32934E-07,1.34964E-08,0,1.1046E-08,0,0
235,CSTriangle,3,132,133,213,-1,-1,-1,-1,-1,1.35551E-07,1.94288E-08,0,6.42484E-09,0,0
236,CSTriangle,3,131,132,214,-1,-1,-1,-1,-1,1.35755E-07,1.6268E-08,0,2.85952E-09,0,0
237,CSTriangle,3,130,131,215,-1,-1,-1,-1,-1,1.35413E-07,1.52432E-08,0,-6.42579E-10,0,0
238,CSTriangle,3,215,131,214,-1,-1,-1,-1,-1,1.33041E-07,5.54108E-09,0,9.94589E-10,0,0
239,CSTriangle,3,129,130,216,-1,-1,-1,-1,-1,1.34415E-07,1.61E-08,0,-3.54819E-09,0,0
240,CSTriangle,3,216,130,215,-1,-1,-1,-1,-1,1.32878E-07,5.22228E-09,0,-2.38492E-09,0,0
241,CSTriangle,3,115,114,217,-1,-1,-1,-1,-1,3.66244E-08,-5.21007E-09,0,8.18945E-09,0,0
242,CSTriangle,3,114,202,217,-1,-1,-1,-1,-1,4.43855E-08,-2.53436E-09,0,9.96586E-09,0,0
243,CSTriangle,3,123,124,218,-1,-1,-1,-1,-1,3.72521E-08,-4.88478E-09,0,1.62518E-08,0,0
244,CSTriangle,3,198,123,218,-1,-1,-1,-1,-1,5.21619E-08,-1.55637E-09,0,1.39252E-08,0,0
245,CSTriangle,3,124,125,219,-1,-1,-1,-1,-1,2.42621E-08,-7.02892E-09,0,2.13772E-08,0,0
246,CSTriangle,3,124,219,218,-1,-1,-1,-1,-1,4.61608E-08,-2.2529E-09,0,1.80276E-08,0,0
247,CSTriangle,3,125,108,220,-1,-1,-1,-1,-1,7.2867E-09,-1.12406E-08,0,2.90233E-08,0,0
248,CSTriangle,3,125,220,219,-1,-1,-1,-1,-1,4.00478E-08,-3.65711E-09,0,2.37493E-08,0,0
249,CSTriangle,3,155,153,221,-1,-1,-1,-1,-1,-3.2075E-08,-2.29032E-08,0,-4.42772E-08,0,0
250,CSTriangle,3,108,105,222,-1,-1,-1,-1,-1,-1.4453E-08,-2.02688E-08,0,4.25054E-08,0,0
251,CSTriangle,3,105,96,223,-1,-1,-1,-1,-1,-4.27083E-08,-3.56114E-08,0,6.18649E-08,0,0
252,CSTriangle,3,96,95,224,-1,-1,-1,-1,-1,-5.94177E-08,-6.37341E-08,0,8.27507E-08,0,0
253,CSTriangle,3,95,94,224,-1,-1,-1,-1,-1,7.35012E-08,-5.79166E-08,0,4.63016E-08,0,0
254,CSTriangle,3,94,97,224,-1,-1,-1,-1,-1,8.56401E-08,-2.94874E-08,0,5.17732E-08,0,0
255,CSTriangle,3,223,96,224,-1,-1,-1,-1,-1,5.49878E-08,-3.60947E-08,0,6.90722E-08,0,0
256,CSTriangle,3,153,151,225,-1,-1,-1,-1,-1,-1.04334E-08,-1.36823E-08,0,-3.08951E-08,0,0
257,CSTriangle,3,151,142,226,-1,-1,-1,-1,-1,6.44644E-09,-8.52603E-09,0,-2.20109E-08,0,0
258,CSTriangle,3,142,141,227,-1,-1,-1,-1,-1,1.91747E-08,-5.64421E-09,0,-1.60443E-08,0,0
259,CSTriangle,3,141,140,228,-1,-1,-1,-1,-1,2.86388E-08,-4.36432E-09,0,-1.16983E-08,0,0
260,CSTriangle,3,140,139,229,-1,-1,-1,-1,-1,3.54508E-08,-3.68658E-09,0,-8.1836E-09,0,0
261,CSTriangle,3,139,138,230,-1,-1,-1,-1,-1,3.99723E-08,-3.42598E-09,0,-5.0787E-09,0,0
262,CSTriangle,3,138,137,231,-1,-1,-1,-1,-1,4.23738E-08,-3.50096E-09,0,-2.08652E-09,0,0
263,CSTriangle,3,230,138,231,-1,-1,-1,-1,-1,4.65926E-08,-1.16881E-09,0,-3.57845E-09,0,0
264,CSTriangle,3,137,136,232,-1,-1,-1,-1,-1,4.26832E-08,-3.71153E-09,0,9.9439E-10,0,0
265,CSTriangle,3,136,115,233,-1,-1,-1,-1,-1,4.08356E-08,-4.07482E-09,0,4.29526E-09,0,0
266,CSTriangle,3,137,232,231,-1,-1,-1,-1,-1,4.73469E-08,-1.21537E-09,0,-6.0578E-10,0,0
267,CSTriangle,3,113,129,234,-1,-1,-1,-1,-1,1.33086E-07,1.81798E-08,0,-5.42558E-09,0,0
268,CSTriangle,3,112,113,235,-1,-1,-1,-1,-1,1.31832E-07,2.04943E-08,0,-6.08044E-09,0,0
269,CSTriangle,3,106,112,236,-1,-1,-1,-1,-1,1.30271E-07,2.1612E-08,0,-5.18116E-09,0,0
270,CSTriangle,3,236,112,235,-1,-1,-1,-1,-1,1.32451E-07,3.24442E-09,0,-6.08736E-09,0,0
271,CSTriangle,3,98,106,237,-1,-1,-1,-1,-1,1.27049E-07,1.89341E-08,0,-1.37567E-09,0,0
272,CSTriangle,3,97,98,238,-1,-1,-1,-1,-1,1.19114E-07,4.9647E-09,0,1.25568E-08,0,0
273,CSTriangle,3,237,106,236,-1,-1,-1,-1,-1,1.32595E-07,-1.79315E-09,0,-4.28849E-09,0,0
274,CSTriangle,3,168,161,239,-1,-1,-1,-1,-1,8.82776E-08,-2.81866E-08,0,-2.52697E-09,0,0
275,CSTriangle,3,161,173,240,-1,-1,-1,-1,-1,5.21825E-08,-3.06928E-08,0,-1.92911E-08,0,0
276,CSTriangle,3,239,161,240,-1,-1,-1,-1,-1,7.34074E-08,-4.03448E-08,0,-1.08931E-08,0,0
277,CSTriangle,3,170,162,241,-1,-1,-1,-1,-1,5.55593E-08,-3.62066E-08,0,2.19528E-08,0,0
278,CSTriangle,3,162,174,242,-1,-1,-1,-1,-1,7.08722E-08,-1.35536E-08,0,7.30893E-09,0,0
279,CSTriangle,3,241,162,242,-1,-1,-1,-1,-1,7.47307E-08,-3.04395E-08,0,7.95331E-09,0,0
280,CSTriangle,3,171,163,243,-1,-1,-1,-1,-1,3.56258E-08,-3.64801E-09,0,-1.44499E-09,0,0
281,CSTriangle,3,163,172,244,-1,-1,-1,-1,-1,4.24891E-08,-5.04082E-09,0,1.05983E-08,0,0
282,CSTriangle,3,243,163,244,-1,-1,-1,-1,-1,3.05529E-08,-6.9673E-09,0,5.72439E-09,0,0
283,CSTriangle,3,169,167,245,-1,-1,-1,-1,-1,8.72246E-08,-3.84379E-08,0,-6.34127E-08,0,0
284,CSTriangle,3,167,168,246,-1,-1,-1,-1,-1,8.45237E-08,1.00262E-08,0,-1.77575E-08,0,0
285,CSTriangle,3,245,167,246,-1,-1,-1,-1,-1,1.22671E-07,-4.14957E-11,0,-2.83352E-08,0,0
286,CSTriangle,3,173,165,247,-1,-1,-1,-1,-1,5.43629E-08,-1.16981E-08,0,-1.2756E-08,0,0
287,CSTriangle,3,165,171,248,-1,-1,-1,-1,-1,4.35815E-08,-8.38099E-09,0,-8.26353E-09,0,0
288,CSTriangle,3,247,165,248,-1,-1,-1,-1,-1,4.44667E-08,-1.45243E-08,0,-1.227E-08,0,0
289,CSTriangle,3,172,164,249,-1,-1,-1,-1,-1,4.74895E-08,-1.30389E-08,0,1.19066E-08,0,0
290,CSTriangle,3,164,170,250,-1,-1,-1,-1,-1,5.99184E-08,-1.42202E-08,0,1.56625E-08,0,0
291,CSTriangle,3,249,164,250,-1,-1,-1,-1,-1,5.41214E-08,-1.65084E-08,0,1.39763E-08,0,0
292,CSTriangle,3,174,166,251,-1,-1,-1,-1,-1,1.22955E-07,5.21599E-08,0,7.12857E-08,0,0
293,CSTriangle,3,166,169,252,-1,-1,-1,-1,-1,1.79502E-07,-9.3728E-08,0,4.28793E-08,0,0
294,CSTriangle,3,251,166,252,-1,-1,-1,-1,-1,2.07345E-07,-1.00925E-08,0,5.63338E-08,0,0
295,CSTriangle,3,143,210,209,-1,-1,-1,-1,-1,5.71188E-08,9.68769E-09,0,7.32239E-10,0,0
296,CSTriangle,3,136,233,232,-1,-1,-1,-1,-1,4.69605E-08,-1.33321E-09,0,2.51542E-09,0,0
297,CSTriangle,3,142,227,226,-1,-1,-1,-1,-1,3.30218E-08,-2.85792E-09,0,-1.80227E-08,0,0
298,CSTriangle,3,98,237,238,-1,-1,-1,-1,-1,1.38543E-07,-1.19097E-08,0,8.11212E-10,0,0
299,CSTriangle,3,113,234,235,-1,-1,-1,-1,-1,1.32433E-07,5.28479E-09,0,-6.10356E-09,0,0
300,CSTriangle,3,153,225,221,-1,-1,-1,-1,-1,2.65053E-08,-8.93118E-09,0,-3.45978E-08,0,0
301,CSTriangle,3,128,183,181,-1,-1,-1,-1,-1,7.07369E-08,1.84361E-09,0,-9.4645E-09,0,0
302,CSTriangle,3,101,178,175,-1,-1,-1,-1,-1,9.08374E-08,-1.87987E-08,0,-2.00801E-08,0,0
303,CSTriangle,3,191,103,177,-1,-1,-1,-1,-1,7.43699E-08,-2.10398E-08,0,4.31498E-08,0,0
304,CSTriangle,3,188,159,176,-1,-1,-1,-1,-1,1.54666E-07,-2.72403E-08,0,3.42504E-09,0,0
305,CSTriangle,3,190,99,175,-1,-1,-1,-1,-1,1.10441E-07,-1.08854E-08,0,1.12042E-08,0,0
306,CSTriangle,3,151,226,225,-1,-1,-1,-1,-1,2.87896E-08,-4.83743E-09,0,-2.4721E-08,0,0
307,CSTriangle,3,154,192,199,-1,-1,-1,-1,-1,1.34353E-07,1.36811E-08,0,1.49347E-08,0,0
308,CSTriangle,3,140,229,228,-1,-1,-1,-1,-1,4.1674E-08,-1.45093E-09,0,-9.66219E-09,0,0
309,CSTriangle,3,214,132,213,-1,-1,-1,-1,-1,1.33074E-07,7.20357E-09,0,4.66815E-09,0,0
310,CSTriangle,3,220,108,222,-1,-1,-1,-1,-1,3.67975E-08,-6.98537E-09,0,3.33403E-08,0,0
311,CSTriangle,3,146,207,206,-1,-1,-1,-1,-1,5.4025E-08,1.01744E-08,0,-2.07708E-09,0,0
312,CSTriangle,3,196,121,197,-1,-1,-1,-1,-1,6.1638E-08,-1.07258E-09,0,7.80074E-09,0,0
313,CSTriangle,3,197,122,198,-1,-1,-1,-1,-1,5.74344E-08,-1.21656E-09,0,1.06733E-08,0,0
314,CSTriangle,3,201,104,191,-1,-1,-1,-1,-1,5.22261E-08,-8.81123E-09,0,2.63425E-08,0,0
315,CSTriangle,3,147,206,205,-1,-1,-1,-1,-1,5.48122E-08,9.51757E-09,0,-3.05107E-09,0,0
316,CSTriangle,3,213,133,212,-1,-1,-1,-1,-1,1.33006E-07,1.00443E-08,0,8.15885E-09,0,0
317,CSTriangle,3,141,228,227,-1,-1,-1,-1,-1,3.76842E-08,-1.89016E-09,0,-1.33825E-08,0,0
318,CSTriangle,3,139,230,229,-1,-1,-1,-1,-1,4.47002E-08,-1.22577E-09,0,-6.50283E-09,0,0
319,CSTriangle,3,222,105,223,-1,-1,-1,-1,-1,4.08994E-08,-1.33246E-08,0,4.76191E-08,0,0
320,CSTriangle,3,156,189,176,-1,-1,-1,-1,-1,5.87162E-08,-4.76279E-08,0,-7.33424E-08,0,0
321,CSTriangle,3,117,186,184,-1,-1,-1,-1,-1,6.67991E-08,-1.05723E-09,0,-2.43936E-09,0,0
322,CSTriangle,3,111,182,180,-1,-1,-1,-1,-1,6.68674E-08,-2.79323E-09,0,-8.33101E-09,0,0
323,CSTriangle,3,158,188,192,-1,-1,-1,-1,-1,1.44452E-07,3.64608E-09,0,1.49366E-08,0,0
324,CSTriangle,3,129,216,234,-1,-1,-1,-1,-1,1.32614E-07,5.53933E-09,0,-4.8621E-09,0,0
325,CSTriangle,3,97,238,224,-1,-1,-1,-1,-1,1.43274E-07,-3.55765E-08,0,1.7072E-08,0,0
326,CSTriangle,3,155,221,189,-1,-1,-1,-1,-1,3.12572E-08,-1.76335E-08,0,-4.94804E-08,0,0
327,CSTriangle,3,115,217,233,-1,-1,-1,-1,-1,4.58383E-08,-1.65772E-09,0,5.85534E-09,0,0
328,CSTriangle,3,127,203,210,-1,-1,-1,-1,-1,5.98028E-08,8.71963E-09,0,2.16648E-09,0,0
329,CSTriangle,3,135,200,211,-1,-1,-1,-1,-1,1.3306E-07,1.63548E-08,0,1.31157E-08,0,0
330,CSTriangle,3,107,181,179,-1,-1,-1,-1,-1,8.46937E-08,-4.31758E-09,0,-1.00852E-08,0,0
331,CSTriangle,3,90,179,177,-1,-1,-1,-1,-1,1.37659E-07,-1.76381E-08,0,3.60837E-09,0,0
332,CSTriangle,3,116,184,182,-1,-1,-1,-1,-1,6.64251E-08,-1.50539E-09,0,-5.04756E-09,0,0
333,CSTriangle,3,100,190,193,-1,-1,-1,-1,-1,8.1071E-08,4.00775E-10,0,9.46552E-09,0,0
334,CSTriangle,3,102,180,178,-1,-1,-1,-1,-1,6.99145E-08,-5.79335E-09,0,-1.31545E-08,0,0
335,CSTriangle,3,240,173,253,-1,-1,-1,-1,-1,6.05303E-08,-1.70183E-08,0,-1.09769E-08,0,0
336,CSTriangle,3,173,247,253,-1,-1,-1,-1,-1,4.98583E-08,-1.85148E-08,0,-1.12785E-08,0,0
337,CSTriangle,3,244,172,254,-1,-1,-1,-1,-1,4.14555E-08,-9.84967E-09,0,9.52316E-09,0,0
338,CSTriangle,3,172,249,254,-1,-1,-1,-1,-1,4.85315E-08,-1.25966E-08,0,1.1746E-08,0,0
339,CSTriangle,3,242,174,255,-1,-1,-1,-1,-1,8.61226E-08,-3.81169E-09,0,1.86409E-08,0,0
340,CSTriangle,3,174,251,255,-1,-1,-1,-1,-1,7.58162E-08,-6.27247E-09,0,2.36523E-08,0,0
341,CSTriangle,3,246,168,256,-1,-1,-1,-1,-1,8.10637E-08,-1.88338E-08,0,4.06635E-09,0,0
342,CSTriangle,3,168,239,256,-1,-1,-1,-1,-1,8.06393E-08,-2.77295E-08,0,-2.91832E-09,0,0
343,CSTriangle,3,248,171,257,-1,-1,-1,-1,-1,3.78512E-08,-8.39042E-09,0,-7.94676E-09,0,0
344,CSTriangle,3,171,243,257,-1,-1,-1,-1,-1,3.55552E-08,-5.23702E-09,0,-1.63608E-09,0,0
345,CSTriangle,3,250,170,258,-1,-1,-1,-1,-1,5.57784E-08,-2.25889E-08,0,1.36018E-08,0,0
346,CSTriangle,3,170,241,258,-1,-1,-1,-1,-1,7.12323E-08,-1.78748E-08,0,1.2716E-08,0,0
347,CSTriangle,3,252,169,259,-1,-1,-1,-1,-1,2.34982E-07,-3.24086E-08,0,1.05018E-08,0,0
348,CSTriangle,3,169,245,259,-1,-1,-1,-1,-1,1.98576E-07,-8.5569E-09,0,-4.98381E-08,0,0
349,CSTriangle,3,223,224,260,-1,-1,-1,-1,-1,4.61207E-08,-3.40547E-08,0,4.02287E-08,0,0
350,CSTriangle,3,224,238,260,-1,-1,-1,-1,-1,8.04107E-08,-4.82562E-08,0,4.23826E-08,0,0
351,CSTriangle,3,177,179,261,-1,-1,-1,-1,-1,7.1128E-08,-2.98259E-08,0,1.6075E-08,0,0
352,CSTriangle,3,191,177,261,-1,-1,-1,-1,-1,6.34844E-08,-2.0747E-08,0,1.71026E-08,0,0
353,CSTriangle,3,176,189,262,-1,-1,-1,-1,-1,5.77029E-08,-2.98448E-08,0,-3.10716E-08,0,0
354,CSTriangle,3,188,176,262,-1,-1,-1,-1,-1,8.49401E-08,-4.19293E-08,0,-3.68126E-08,0,0
355,CSTriangle,3,175,178,263,-1,-1,-1,-1,-1,8.03875E-08,-9.85085E-09,0,-3.02411E-09,0,0
356,CSTriangle,3,190,175,263,-1,-1,-1,-1,-1,7.87441E-08,-1.34305E-08,0,-6.74603E-10,0,0
357,CSTriangle,3,222,223,264,-1,-1,-1,-1,-1,3.93997E-08,-3.68745E-08,0,5.31512E-08,0,0
358,CSTriangle,3,201,191,265,-1,-1,-1,-1,-1,5.78968E-08,-2.42607E-08,0,2.56964E-08,0,0
359,CSTriangle,3,191,261,265,-1,-1,-1,-1,-1,6.94098E-08,-2.13369E-08,0,1.73309E-08,0,0
360,CSTriangle,3,202,201,266,-1,-1,-1,-1,-1,4.40693E-08,-1.44753E-08,0,1.78077E-08,0,0
361,CSTriangle,3,217,202,267,-1,-1,-1,-1,-1,4.20873E-08,-1.01946E-08,0,1.20772E-08,0,0
362,CSTriangle,3,192,188,268,-1,-1,-1,-1,-1,1.47046E-07,-5.66558E-09,0,-5.8381E-09,0,0
363,CSTriangle,3,188,262,268,-1,-1,-1,-1,-1,1.23428E-07,-2.88947E-08,0,-1.16248E-08,0,0
364,CSTriangle,3,193,190,269,-1,-1,-1,-1,-1,9.58153E-08,3.51719E-10,0,6.65336E-09,0,0
365,CSTriangle,3,190,263,269,-1,-1,-1,-1,-1,8.04589E-08,-8.13698E-09,0,1.07232E-09,0,0
366,CSTriangle,3,194,193,270,-1,-1,-1,-1,-1,7.41936E-08,5.97505E-09,0,5.36437E-09,0,0
367,CSTriangle,3,203,194,271,-1,-1,-1,-1,-1,6.62006E-08,8.12351E-09,0,3.7508E-09,0,0
368,CSTriangle,3,220,222,272,-1,-1,-1,-1,-1,3.2117E-08,-2.13986E-08,0,3.90138E-08,0,0
369,CSTriangle,3,199,192,273,-1,-1,-1,-1,-1,1.33651E-07,1.20448E-08,0,8.23135E-09,0,0
370,CSTriangle,3,273,192,268,-1,-1,-1,-1,-1,1.61344E-07,-1.47592E-08,0,7.06007E-09,0,0
371,CSTriangle,3,200,199,274,-1,-1,-1,-1,-1,1.31691E-07,1.65143E-08,0,1.32453E-08,0,0
372,CSTriangle,3,274,199,273,-1,-1,-1,-1,-1,1.32799E-07,-3.27302E-09,0,1.26344E-08,0,0
373,CSTriangle,3,219,220,275,-1,-1,-1,-1,-1,3.68024E-08,-1.44721E-08,0,3.05589E-08,0,0
374,CSTriangle,3,275,220,272,-1,-1,-1,-1,-1,6.16361E-08,-1.20217E-08,0,3.23146E-08,0,0
375,CSTriangle,3,218,219,276,-1,-1,-1,-1,-1,4.37601E-08,-1.02524E-08,0,2.43682E-08,0,0
376,CSTriangle,3,276,219,275,-1,-1,-1,-1,-1,6.02832E-08,-7.94034E-09,0,2.61213E-08,0,0
377,CSTriangle,3,198,218,277,-1,-1,-1,-1,-1,5.02192E-08,-8.02777E-09,0,1.93914E-08,0,0
378,CSTriangle,3,197,198,278,-1,-1,-1,-1,-1,5.57017E-08,-6.98748E-09,0,1.50555E-08,0,0
379,CSTriangle,3,196,197,279,-1,-1,-1,-1,-1,5.99747E-08,-6.61208E-09,0,1.10092E-08,0,0
380,CSTriangle,3,279,197,278,-1,-1,-1,-1,-1,6.53895E-08,-3.70511E-09,0,1.28723E-08,0,0
381,CSTriangle,3,195,196,280,-1,-1,-1,-1,-1,6.29705E-08,-6.38434E-09,0,7.15124E-09,0,0
382,CSTriangle,3,187,195,281,-1,-1,-1,-1,-1,6.4767E-08,-5.98934E-09,0,3.5424E-09,0,0
383,CSTriangle,3,195,280,281,-1,-1,-1,-1,-1,6.77298E-08,-3.32028E-09,0,5.20848E-09,0,0
384,CSTriangle,3,186,187,282,-1,-1,-1,-1,-1,6.55171E-08,-5.62815E-09,0,2.08217E-10,0,0
385,CSTriangle,3,187,281,282,-1,-1,-1,-1,-1,6.8118E-08,-3.1384E-09,0,1.75874E-09,0,0
386,CSTriangle,3,211,200,283,-1,-1,-1,-1,-1,1.33879E-07,1.66022E-08,0,1.44372E-08,0,0
387,CSTriangle,3,212,211,284,-1,-1,-1,-1,-1,1.36242E-07,1.44894E-08,0,1.3416E-08,0,0
388,CSTriangle,3,213,212,285,-1,-1,-1,-1,-1,1.38439E-07,1.16748E-08,0,1.06044E-08,0,0
389,CSTriangle,3,212,284,285,-1,-1,-1,-1,-1,1.35464E-07,4.52587E-10,0,1.26377E-08,0,0
390,CSTriangle,3,214,213,286,-1,-1,-1,-1,-1,1.39607E-07,9.1643E-09,0,6.54751E-09,0,0
391,CSTriangle,3,213,285,286,-1,-1,-1,-1,-1,1.36092E-07,-1.78622E-09,0,8.89816E-09,0,0
392,CSTriangle,3,215,214,287,-1,-1,-1,-1,-1,1.39621E-07,7.51584E-09,0,2.02562E-09,0,0
393,CSTriangle,3,214,286,287,-1,-1,-1,-1,-1,1.36287E-07,-3.65438E-09,0,4.27252E-09,0,0
394,CSTriangle,3,216,215,288,-1,-1,-1,-1,-1,1.37926E-07,6.73742E-09,0,-1.89486E-09,0,0
395,CSTriangle,3,215,287,288,-1,-1,-1,-1,-1,1.35919E-07,-4.07306E-09,0,-4.51678E-10,0,0
396,CSTriangle,3,234,216,289,-1,-1,-1,-1,-1,1.34962E-07,6.24448E-09,0,-4.23012E-09,0,0
397,CSTriangle,3,216,288,289,-1,-1,-1,-1,-1,1.3488E-07,-3.87672E-09,0,-3.9563E-09,0,0
398,CSTriangle,3,235,234,290,-1,-1,-1,-1,-1,1.31736E-07,5.07652E-09,0,-4.46769E-09,0,0
399,CSTriangle,3,234,289,290,-1,-1,-1,-1,-1,1.33532E-07,-4.62285E-09,0,-5.32901E-09,0,0
400,CSTriangle,3,236,235,291,-1,-1,-1,-1,-1,1.28202E-07,1.96906E-09,0,-2.15626E-09,0,0
401,CSTriangle,3,237,236,292,-1,-1,-1,-1,-1,1.22434E-07,-4.80367E-09,0,3.78671E-09,0,0
402,CSTriangle,3,238,237,293,-1,-1,-1,-1,-1,1.12913E-07,-1.86612E-08,0,1.59519E-08,0,0
403,CSTriangle,3,260,238,293,-1,-1,-1,-1,-1,9.89267E-08,-2.41534E-08,0,1.64386E-08,0,0
404,CSTriangle,3,293,237,292,-1,-1,-1,-1,-1,1.32921E-07,-2.06694E-08,0,6.98228E-09,0,0
405,CSTriangle,3,292,236,291,-1,-1,-1,-1,-1,1.30458E-07,-1.20335E-08,0,-9.53946E-10,0,0
406,CSTriangle,3,184,186,294,-1,-1,-1,-1,-1,6.54607E-08,-5.51313E-09,0,-2.83714E-09,0,0
407,CSTriangle,3,233,217,295,-1,-1,-1,-1,-1,4.39117E-08,-8.08018E-09,0,7.51072E-09,0,0
408,CSTriangle,3,217,267,295,-1,-1,-1,-1,-1,5.26148E-08,-5.6848E-09,0,9.13987E-09,0,0
409,CSTriangle,3,210,203,296,-1,-1,-1,-1,-1,6.22294E-08,9.44761E-09,0,2.2092E-09,0,0
410,CSTriangle,3,203,271,296,-1,-1,-1,-1,-1,6.31211E-08,3.61312E-09,0,1.80309E-09,0,0
411,CSTriangle,3,232,233,297,-1,-1,-1,-1,-1,4.52012E-08,-7.19447E-09,0,3.33822E-09,0,0
412,CSTriangle,3,231,232,298,-1,-1,-1,-1,-1,4.5594E-08,-7.05458E-09,0,-6.65921E-10,0,0
413,CSTriangle,3,230,231,299,-1,-1,-1,-1,-1,4.48991E-08,-6.81018E-09,0,-4.70473E-09,0,0
414,CSTriangle,3,229,230,300,-1,-1,-1,-1,-1,4.29724E-08,-6.98134E-09,0,-8.79439E-09,0,0
415,CSTriangle,3,300,230,299,-1,-1,-1,-1,-1,5.24931E-08,-3.80213E-09,0,-6.67685E-09,0,0
416,CSTriangle,3,228,229,301,-1,-1,-1,-1,-1,3.98076E-08,-7.66875E-09,0,-1.30759E-08,0,0
417,CSTriangle,3,301,229,300,-1,-1,-1,-1,-1,5.19025E-08,-4.1439E-09,0,-1.0694E-08,0,0
418,CSTriangle,3,227,228,302,-1,-1,-1,-1,-1,3.55262E-08,-9.08034E-09,0,-1.7777E-08,0,0
419,CSTriangle,3,302,228,301,-1,-1,-1,-1,-1,5.11337E-08,-4.95275E-09,0,-1.49557E-08,0,0
420,CSTriangle,3,226,227,303,-1,-1,-1,-1,-1,3.03863E-08,-1.16403E-08,0,-2.32853E-08,0,0
421,CSTriangle,3,209,210,304,-1,-1,-1,-1,-1,5.90417E-08,1.02647E-08,0,8.84064E-10,0,0
422,CSTriangle,3,208,209,305,-1,-1,-1,-1,-1,5.66463E-08,1.07115E-08,0,-1.51693E-10,0,0
423,CSTriangle,3,207,208,306,-1,-1,-1,-1,-1,5.54002E-08,1.08117E-08,0,-9.97E-10,0,0
424,CSTriangle,3,306,208,305,-1,-1,-1,-1,-1,5.54457E-08,7.32056E-09,0,-9.4682E-10,0,0
425,CSTriangle,3,206,207,307,-1,-1,-1,-1,-1,5.53722E-08,1.05786E-08,0,-1.82987E-09,0,0
426,CSTriangle,3,207,306,307,-1,-1,-1,-1,-1,5.48195E-08,7.24166E-09,0,-1.42442E-09,0,0
427,CSTriangle,3,205,206,308,-1,-1,-1,-1,-1,5.6523E-08,1.0031E-08,0,-2.82234E-09,0,0
428,CSTriangle,3,206,307,308,-1,-1,-1,-1,-1,5.52624E-08,6.45727E-09,0,-1.98719E-09,0,0
429,CSTriangle,3,204,205,309,-1,-1,-1,-1,-1,5.8736E-08,9.16041E-09,0,-4.06217E-09,0,0
430,CSTriangle,3,309,205,308,-1,-1,-1,-1,-1,5.67612E-08,5.11705E-09,0,-2.7887E-09,0,0
431,CSTriangle,3,185,204,310,-1,-1,-1,-1,-1,6.19245E-08,7.86978E-09,0,-5.54837E-09,0,0
432,CSTriangle,3,310,204,309,-1,-1,-1,-1,-1,5.92925E-08,3.08059E-09,0,-3.86396E-09,0,0
433,CSTriangle,3,183,185,311,-1,-1,-1,-1,-1,6.62493E-08,5.83134E-09,0,-7.06491E-09,0,0
434,CSTriangle,3,311,185,310,-1,-1,-1,-1,-1,6.30637E-08,3.42403E-10,0,-5.03243E-09,0,0
435,CSTriangle,3,225,226,312,-1,-1,-1,-1,-1,2.51695E-08,-1.68928E-08,0,-2.99103E-08,0,0
436,CSTriangle,3,312,226,303,-1,-1,-1,-1,-1,5.20541E-08,-9.64023E-09,0,-2.49638E-08,0,0
437,CSTriangle,3,182,184,313,-1,-1,-1,-1,-1,6.50502E-08,-6.05196E-09,0,-5.64157E-09,0,0
438,CSTriangle,3,313,184,294,-1,-1,-1,-1,-1,6.81359E-08,-3.55047E-09,0,-4.0728E-09,0,0
439,CSTriangle,3,181,183,314,-1,-1,-1,-1,-1,7.17114E-08,2.14181E-09,0,-7.84999E-09,0,0
440,CSTriangle,3,179,181,315,-1,-1,-1,-1,-1,7.89997E-08,-5.50376E-09,0,-5.74328E-09,0,0
441,CSTriangle,3,261,179,315,-1,-1,-1,-1,-1,7.8471E-08,-1.33068E-08,0,2.40229E-09,0,0
442,CSTriangle,3,315,181,314,-1,-1,-1,-1,-1,7.88451E-08,-9.34617E-09,0,-4.64161E-09,0,0
443,CSTriangle,3,314,183,311,-1,-1,-1,-1,-1,6.85878E-08,-3.60428E-09,0,-5.85887E-09,0,0
444,CSTriangle,3,221,225,316,-1,-1,-1,-1,-1,2.2007E-08,-2.38474E-08,0,-3.7487E-08,0,0
445,CSTriangle,3,189,221,317,-1,-1,-1,-1,-1,2.58561E-08,-3.33566E-08,0,-4.37993E-08,0,0
446,CSTriangle,3,262,189,317,-1,-1,-1,-1,-1,6.57423E-08,-3.46892E-08,0,-3.33561E-08,0,0
447,CSTriangle,3,317,221,316,-1,-1,-1,-1,-1,6.51445E-08,-2.5813E-08,0,-3.82196E-08,0,0
448,CSTriangle,3,180,182,318,-1,-1,-1,-1,-1,6.52935E-08,-7.66654E-09,0,-8.13597E-09,0,0
449,CSTriangle,3,178,180,319,-1,-1,-1,-1,-1,6.70568E-08,-1.10849E-08,0,-9.49534E-09,0,0
450,CSTriangle,3,318,182,313,-1,-1,-1,-1,-1,6.89028E-08,-4.91849E-09,0,-6.40141E-09,0,0
451,CSTriangle,3,253,247,320,-1,-1,-1,-1,-1,6.15805E-08,-1.44162E-08,0,-8.5675E-09,0,0
452,CSTriangle,3,247,248,321,-1,-1,-1,-1,-1,5.4121E-08,-9.99498E-09,0,-8.47619E-09,0,0
453,CSTriangle,3,320,247,321,-1,-1,-1,-1,-1,5.44772E-08,-1.48021E-08,0,-9.00537E-09,0,0
454,CSTriangle,3,248,257,322,-1,-1,-1,-1,-1,4.46727E-08,-5.61079E-09,0,-5.277E-09,0,0
455,CSTriangle,3,321,248,322,-1,-1,-1,-1,-1,4.48246E-08,-9.99429E-09,0,-7.91902E-09,0,0
456,CSTriangle,3,254,249,323,-1,-1,-1,-1,-1,5.19396E-08,-1.24993E-08,0,9.58725E-09,0,0
457,CSTriangle,3,249,250,324,-1,-1,-1,-1,-1,5.63884E-08,-1.44945E-08,0,9.78605E-09,0,0
458,CSTriangle,3,323,249,324,-1,-1,-1,-1,-1,5.31552E-08,-1.54958E-08,0,9.58433E-09,0,0
459,CSTriangle,3,250,258,325,-1,-1,-1,-1,-1,6.31056E-08,-1.58475E-08,0,8.57462E-09,0,0
460,CSTriangle,3,324,250,325,-1,-1,-1,-1,-1,5.56902E-08,-1.88046E-08,0,9.04541E-09,0,0
461,CSTriangle,3,255,251,326,-1,-1,-1,-1,-1,1.13939E-07,1.2804E-08,0,3.88155E-08,0,0
462,CSTriangle,3,251,252,327,-1,-1,-1,-1,-1,1.40133E-07,-3.90201E-08,0,3.61835E-08,0,0
463,CSTriangle,3,326,251,327,-1,-1,-1,-1,-1,1.42432E-07,-1.48288E-08,0,3.18258E-08,0,0
464,CSTriangle,3,252,259,328,-1,-1,-1,-1,-1,1.60372E-07,-4.71243E-08,0,7.64592E-09,0,0
465,CSTriangle,3,327,252,328,-1,-1,-1,-1,-1,1.67782E-07,-2.37195E-08,0,2.07547E-08,0,0
466,CSTriangle,3,257,243,329,-1,-1,-1,-1,-1,4.1857E-08,-3.70379E-09,0,-1.96315E-09,0,0
467,CSTriangle,3,243,244,330,-1,-1,-1,-1,-1,4.26292E-08,-2.54203E-09,0,4.32903E-09,0,0
468,CSTriangle,3,244,254,331,-1,-1,-1,-1,-1,4.60754E-08,-7.57437E-09,0,7.95143E-09,0,0
469,CSTriangle,3,330,244,331,-1,-1,-1,-1,-1,3.95028E-08,-6.44525E-09,0,5.89448E-09,0,0
470,CSTriangle,3,329,243,330,-1,-1,-1,-1,-1,3.83365E-08,-4.30092E-09,0,2.4456E-09,0,0
471,CSTriangle,3,258,241,332,-1,-1,-1,-1,-1,6.29152E-08,-2.45891E-08,0,7.71607E-09,0,0
472,CSTriangle,3,241,242,333,-1,-1,-1,-1,-1,7.14645E-08,-1.62814E-08,0,3.19974E-09,0,0
473,CSTriangle,3,242,255,334,-1,-1,-1,-1,-1,7.78095E-08,-1.00346E-08,0,8.0276E-09,0,0
474,CSTriangle,3,333,242,334,-1,-1,-1,-1,-1,8.14316E-08,-1.37196E-08,0,6.2885E-09,0,0
475,CSTriangle,3,332,241,333,-1,-1,-1,-1,-1,7.53973E-08,-2.17268E-08,0,2.98287E-09,0,0
476,CSTriangle,3,239,240,335,-1,-1,-1,-1,-1,7.63077E-08,-2.30769E-08,0,-5.23983E-10,0,0
477,CSTriangle,3,256,239,336,-1,-1,-1,-1,-1,7.91035E-08,-1.90814E-08,0,5.03971E-09,0,0
478,CSTriangle,3,336,239,335,-1,-1,-1,-1,-1,7.16304E-08,-2.42935E-08,0,1.19222E-09,0,0
479,CSTriangle,3,240,253,337,-1,-1,-1,-1,-1,6.43291E-08,-2.28952E-08,0,-7.68424E-09,0,0
480,CSTriangle,3,335,240,337,-1,-1,-1,-1,-1,7.2368E-08,-2.79816E-08,0,-3.23293E-09,0,0
481,CSTriangle,3,259,245,338,-1,-1,-1,-1,-1,1.21023E-07,-2.90377E-08,0,-2.57127E-08,0,0
482,CSTriangle,3,245,246,339,-1,-1,-1,-1,-1,9.53963E-08,-1.11159E-08,0,-1.99331E-08,0,0
483,CSTriangle,3,246,256,340,-1,-1,-1,-1,-1,8.51641E-08,-5.99773E-09,0,-3.6844E-09,0,0
484,CSTriangle,3,339,246,340,-1,-1,-1,-1,-1,1.01296E-07,-8.4672E-09,0,-7.02366E-09,0,0
485,CSTriangle,3,338,245,339,-1,-1,-1,-1,-1,1.3103E-07,-8.45944E-09,0,-2.07223E-08,0,0
486,CSTriangle,3,263,178,319,-1,-1,-1,-1,-1,6.21064E-08,-1.31648E-08,0,-5.56166E-09,0,0
487,CSTriangle,3,316,225,312,-1,-1,-1,-1,-1,5.59913E-08,-1.52558E-08,0,-3.15718E-08,0,0
488,CSTriangle,3,266,201,265,-1,-1,-1,-1,-1,7.2156E-08,-1.71247E-08,0,2.10554E-08,0,0
489,CSTriangle,3,270,193,269,-1,-1,-1,-1,-1,9.00628E-08,-2.3092E-09,0,4.27337E-09,0,0
490,CSTriangle,3,283,200,274,-1,-1,-1,-1,-1,1.34354E-07,1.05629E-09,0,1.44975E-08,0,0
491,CSTriangle,3,271,194,270,-1,-1,-1,-1,-1,6.74563E-08,1.30121E-09,0,3.11385E-09,0,0
492,CSTriangle,3,267,202,266,-1,-1,-1,-1,-1,5.40932E-08,-8.33252E-09,0,1.34451E-08,0,0
493,CSTriangle,3,291,235,290,-1,-1,-1,-1,-1,1.32288E-07,-7.02636E-09,0,-4.40536E-09,0,0
494,CSTriangle,3,231,298,299,-1,-1,-1,-1,-1,5.24803E-08,-3.83216E-09,0,-2.75088E-09,0,0
495,CSTriangle,3,298,232,297,-1,-1,-1,-1,-1,5.2052E-08,-4.0318E-09,0,1.28984E-09,0,0
496,CSTriangle,3,222,264,272,-1,-1,-1,-1,-1,7.85645E-08,-2.50233E-08,0,4.56016E-08,0,0
497,CSTriangle,3,198,277,278,-1,-1,-1,-1,-1,6.31727E-08,-4.26988E-09,0,1.68507E-08,0,0
498,CSTriangle,3,277,218,276,-1,-1,-1,-1,-1,6.10625E-08,-5.51074E-09,0,2.11412E-08,0,0
499,CSTriangle,3,209,304,305,-1,-1,-1,-1,-1,5.71196E-08,6.71908E-09,0,-3.46425E-10,0,0
500,CSTriangle,3,186,282,294,-1,-1,-1,-1,-1,6.80822E-08,-3.12702E-09,0,-1.3483E-09,0,0
501,CSTriangle,3,180,318,319,-1,-1,-1,-1,-1,7.22453E-08,-8.43362E-09,0,-8.00848E-09,0,0
502,CSTriangle,3,280,196,279,-1,-1,-1,-1,-1,6.69381E-08,-3.48325E-09,0,8.9787E-09,0,0
503,CSTriangle,3,264,223,260,-1,-1,-1,-1,-1,7.78136E-08,-3.2078E-08,0,3.84995E-08,0,0
504,CSTriangle,3,210,296,304,-1,-1,-1,-1,-1,5.96949E-08,5.40246E-09,0,6.0021E-10,0,0
505,CSTriangle,3,284,211,283,-1,-1,-1,-1,-1,1.34724E-07,1.79509E-09,0,1.46098E-08,0,0
506,CSTriangle,3,233,295,297,-1,-1,-1,-1,-1,5.21811E-08,-4.44007E-09,0,5.14461E-09,0,0
507,CSTriangle,3,227,302,303,-1,-1,-1,-1,-1,5.12812E-08,-6.4457E-09,0,-1.97065E-08,0,0
508,CSTriangle,3,331,254,341,-1,-1,-1,-1,-1,4.91509E-08,-9.60738E-09,0,7.95708E-09,0,0
509,CSTriangle,3,254,323,341,-1,-1,-1,-1,-1,5.37323E-08,-1.24779E-08,0,8.87645E-09,0,0
510,CSTriangle,3,334,255,342,-1,-1,-1,-1,-1,9.53843E-08,-2.74974E-09,0,1.6361E-08,0,0
511,CSTriangle,3,255,326,342,-1,-1,-1,-1,-1,9.42583E-08,-1.12315E-08,0,1.81931E-08,0,0
512,CSTriangle,3,340,256,343,-1,-1,-1,-1,-1,8.44484E-08,-1.51682E-08,0,6.2166E-09,0,0
513,CSTriangle,3,256,336,343,-1,-1,-1,-1,-1,7.48522E-08,-1.73326E-08,0,3.99198E-09,0,0
514,CSTriangle,3,322,257,344,-1,-1,-1,-1,-1,4.27837E-08,-5.89024E-09,0,-5.26253E-09,0,0
515,CSTriangle,3,257,329,344,-1,-1,-1,-1,-1,4.33634E-08,-3.46704E-09,0,-1.4783E-09,0,0
516,CSTriangle,3,328,259,345,-1,-1,-1,-1,-1,1.67427E-07,-2.83919E-08,0,4.90715E-10,0,0
517,CSTriangle,3,259,338,345,-1,-1,-1,-1,-1,1.51485E-07,-1.77067E-08,0,-1.96323E-08,0,0
518,CSTriangle,3,325,258,346,-1,-1,-1,-1,-1,5.80389E-08,-2.03381E-08,0,5.86142E-09,0,0
519,CSTriangle,3,258,332,346,-1,-1,-1,-1,-1,6.74348E-08,-1.73365E-08,0,4.31925E-09,0,0
520,CSTriangle,3,337,253,347,-1,-1,-1,-1,-1,7.27711E-08,-2.07846E-08,0,-5.67294E-09,0,0
521,CSTriangle,3,253,320,347,-1,-1,-1,-1,-1,6.65267E-08,-1.9045E-08,0,-7.61111E-09,0,0
522,CSTriangle,3,260,293,264,-1,-1,-1,-1,-1,7.36319E-08,-3.64617E-08,0,3.50507E-08,0,0
523,CSTriangle,3,269,263,319,-1,-1,-1,-1,-1,7.27545E-08,-7.25797E-09,0,-1.90254E-09,0,0
524,CSTriangle,3,268,262,317,-1,-1,-1,-1,-1,7.58243E-08,-2.97225E-08,0,-2.61064E-08,0,0
525,CSTriangle,3,265,261,315,-1,-1,-1,-1,-1,6.31093E-08,-2.15406E-08,0,1.05891E-08,0,0
526,CSTriangle,3,315,314,348,-1,-1,-1,-1,-1,7.17426E-08,-1.1725E-08,0,7.34701E-10,0,0
527,CSTriangle,3,265,315,348,-1,-1,-1,-1,-1,8.98974E-08,-1.81051E-08,0,6.25295E-09,0,0
528,CSTriangle,3,266,265,349,-1,-1,-1,-1,-1,5.91504E-08,-1.44115E-08,0,1.08007E-08,0,0
529,CSTriangle,3,349,265,348,-1,-1,-1,-1,-1,6.11813E-08,-1.92775E-08,0,1.0298E-08,0,0
530,CSTriangle,3,293,292,350,-1,-1,-1,-1,-1,1.08396E-07,-2.81782E-08,0,2.08542E-08,0,0
531,CSTriangle,3,264,293,350,-1,-1,-1,-1,-1,1.23443E-07,-3.11516E-08,0,2.59484E-08,0,0
532,CSTriangle,3,272,264,351,-1,-1,-1,-1,-1,6.52865E-08,-2.20374E-08,0,2.83774E-08,0,0
533,CSTriangle,3,351,264,350,-1,-1,-1,-1,-1,8.03324E-08,-3.26366E-08,0,3.11914E-08,0,0
534,CSTriangle,3,317,316,352,-1,-1,-1,-1,-1,6.47399E-08,-2.84026E-08,0,-3.12214E-08,0,0
535,CSTriangle,3,268,317,352,-1,-1,-1,-1,-1,1.16229E-07,-4.02632E-08,0,-3.01195E-08,0,0
536,CSTriangle,3,273,268,353,-1,-1,-1,-1,-1,1.09456E-07,-2.27823E-08,0,-9.73597E-09,0,0
537,CSTriangle,3,353,268,352,-1,-1,-1,-1,-1,1.01067E-07,-1.95496E-08,0,-8.82901E-09,0,0
538,CSTriangle,3,292,291,354,-1,-1,-1,-1,-1,1.19135E-07,-1.56843E-08,0,7.44404E-09,0,0
539,CSTriangle,3,314,311,355,-1,-1,-1,-1,-1,6.8164E-08,-3.84489E-09,0,-2.95979E-09,0,0
540,CSTriangle,3,316,312,356,-1,-1,-1,-1,-1,5.33147E-08,-2.34307E-08,0,-2.84513E-08,0,0
541,CSTriangle,3,274,273,357,-1,-1,-1,-1,-1,1.25368E-07,-6.99012E-09,0,4.69569E-09,0,0
542,CSTriangle,3,312,303,358,-1,-1,-1,-1,-1,5.02143E-08,-1.77656E-08,0,-2.51487E-08,0,0
543,CSTriangle,3,311,310,359,-1,-1,-1,-1,-1,6.41622E-08,6.61629E-10,0,-3.34465E-09,0,0
544,CSTriangle,3,275,272,360,-1,-1,-1,-1,-1,5.76159E-08,-1.9647E-08,0,2.97389E-08,0,0
545,CSTriangle,3,310,309,361,-1,-1,-1,-1,-1,6.08188E-08,3.53782E-09,0,-2.75499E-09,0,0
546,CSTriangle,3,309,308,362,-1,-1,-1,-1,-1,5.79906E-08,5.4856E-09,0,-2.00893E-09,0,0
547,CSTriangle,3,291,290,363,-1,-1,-1,-1,-1,1.36127E-07,-9.47546E-09,0,9.05501E-10,0,0
548,CSTriangle,3,283,274,364,-1,-1,-1,-1,-1,1.29216E-07,-4.87944E-10,0,1.11509E-08,0,0
549,CSTriangle,3,276,275,365,-1,-1,-1,-1,-1,5.80313E-08,-1.54463E-08,0,2.7308E-08,0,0
550,CSTriangle,3,308,307,366,-1,-1,-1,-1,-1,5.79698E-08,6.92658E-09,0,-1.47981E-09,0,0
551,CSTriangle,3,307,306,367,-1,-1,-1,-1,-1,5.53554E-08,7.40243E-09,0,-1.0774E-09,0,0
552,CSTriangle,3,306,305,368,-1,-1,-1,-1,-1,5.59911E-08,7.48417E-09,0,-7.74359E-10,0,0
553,CSTriangle,3,367,306,368,-1,-1,-1,-1,-1,5.55353E-08,4.3446E-09,0,-1.11736E-09,0,0
554,CSTriangle,3,277,276,369,-1,-1,-1,-1,-1,5.89904E-08,-1.24174E-08,0,2.31155E-08,0,0
555,CSTriangle,3,276,365,369,-1,-1,-1,-1,-1,7.34746E-08,-1.09898E-08,0,2.42931E-08,0,0
556,CSTriangle,3,278,277,370,-1,-1,-1,-1,-1,6.47259E-08,-1.16799E-08,0,2.00922E-08,0,0
557,CSTriangle,3,370,277,369,-1,-1,-1,-1,-1,7.32551E-08,-8.6813E-09,0,2.08476E-08,0,0
558,CSTriangle,3,279,278,371,-1,-1,-1,-1,-1,6.92662E-08,-1.1813E-08,0,1.60792E-08,0,0
559,CSTriangle,3,290,289,372,-1,-1,-1,-1,-1,1.40691E-07,-5.24466E-09,0,-2.46054E-09,0,0
560,CSTriangle,3,289,288,373,-1,-1,-1,-1,-1,1.3811E-07,-2.90891E-09,0,-2.48004E-09,0,0
561,CSTriangle,3,288,287,374,-1,-1,-1,-1,-1,1.43042E-07,-1.93614E-09,0,5.4294E-10,0,0
562,CSTriangle,3,287,286,375,-1,-1,-1,-1,-1,1.50332E-07,-1.23487E-09,0,5.46281E-09,0,0
563,CSTriangle,3,286,285,376,-1,-1,-1,-1,-1,1.43142E-07,3.28669E-10,0,1.00575E-08,0,0
564,CSTriangle,3,285,284,377,-1,-1,-1,-1,-1,1.392E-07,1.57348E-09,0,1.31646E-08,0,0
565,CSTriangle,3,284,283,378,-1,-1,-1,-1,-1,1.34423E-07,1.70394E-09,0,1.3719E-08,0,0
566,CSTriangle,3,280,279,379,-1,-1,-1,-1,-1,7.00742E-08,-1.12421E-08,0,1.11322E-08,0,0
567,CSTriangle,3,281,280,380,-1,-1,-1,-1,-1,6.57843E-08,-9.8056E-09,0,6.0424E-09,0,0
568,CSTriangle,3,282,281,381,-1,-1,-1,-1,-1,6.63742E-08,-8.95105E-09,0,2.09289E-09,0,0
569,CSTriangle,3,381,281,380,-1,-1,-1,-1,-1,7.04728E-08,-6.24735E-09,0,3.80493E-09,0,0
570,CSTriangle,3,294,282,382,-1,-1,-1,-1,-1,6.66126E-08,-8.02557E-09,0,-1.22455E-09,0,0
571,CSTriangle,3,313,294,383,-1,-1,-1,-1,-1,6.69575E-08,-7.48929E-09,0,-3.80608E-09,0,0
572,CSTriangle,3,383,294,382,-1,-1,-1,-1,-1,6.90833E-08,-5.6896E-09,0,-2.67987E-09,0,0
573,CSTriangle,3,318,313,384,-1,-1,-1,-1,-1,7.07412E-08,-7.90649E-09,0,-5.64117E-09,0,0
574,CSTriangle,3,384,313,383,-1,-1,-1,-1,-1,7.32372E-08,-6.60043E-09,0,-4.86581E-09,0,0
575,CSTriangle,3,303,302,385,-1,-1,-1,-1,-1,5.14389E-08,-1.48795E-08,0,-2.14417E-08,0,0
576,CSTriangle,3,302,301,386,-1,-1,-1,-1,-1,4.95968E-08,-1.20936E-08,0,-1.62935E-08,0,0
577,CSTriangle,3,301,300,387,-1,-1,-1,-1,-1,4.98013E-08,-1.11485E-08,0,-1.16325E-08,0,0
578,CSTriangle,3,300,299,388,-1,-1,-1,-1,-1,5.04293E-08,-1.06818E-08,0,-7.04975E-09,0,0
579,CSTriangle,3,300,388,387,-1,-1,-1,-1,-1,6.07401E-08,-7.4869E-09,0,-9.19428E-09,0,0
580,CSTriangle,3,299,298,389,-1,-1,-1,-1,-1,4.91881E-08,-1.03269E-08,0,-2.49034E-09,0,0
581,CSTriangle,3,298,297,390,-1,-1,-1,-1,-1,4.86759E-08,-9.88948E-09,0,1.40787E-09,0,0
582,CSTriangle,3,297,295,391,-1,-1,-1,-1,-1,5.46286E-08,-1.16015E-08,0,5.73165E-09,0,0
583,CSTriangle,3,295,267,392,-1,-1,-1,-1,-1,5.80886E-08,-1.34937E-08,0,1.00006E-08,0,0
584,CSTriangle,3,267,266,393,-1,-1,-1,-1,-1,5.55797E-08,-1.43423E-08,0,1.1808E-08,0,0
585,CSTriangle,3,295,392,391,-1,-1,-1,-1,-1,6.68346E-08,-9.9773E-09,0,7.89632E-09,0,0
586,CSTriangle,3,305,304,394,-1,-1,-1,-1,-1,5.80725E-08,7.00473E-09,0,-3.42583E-10,0,0
587,CSTriangle,3,304,296,395,-1,-1,-1,-1,-1,6.61795E-08,6.31589E-09,0,3.15968E-10,0,0
588,CSTriangle,3,296,271,396,-1,-1,-1,-1,-1,7.16493E-08,4.55299E-09,0,1.26597E-09,0,0
589,CSTriangle,3,296,396,395,-1,-1,-1,-1,-1,6.93065E-08,7.7803E-10,0,-4.51898E-10,0,0
590,CSTriangle,3,271,270,397,-1,-1,-1,-1,-1,6.97232E-08,1.50088E-09,0,1.68579E-09,0,0
591,CSTriangle,3,270,269,398,-1,-1,-1,-1,-1,6.78584E-08,-3.58055E-09,0,4.48193E-10,0,0
592,CSTriangle,3,319,318,399,-1,-1,-1,-1,-1,7.34029E-08,-8.01177E-09,0,-5.45236E-09,0,0
593,CSTriangle,3,269,319,399,-1,-1,-1,-1,-1,8.45153E-08,-1.1832E-08,0,-4.11242E-09,0,0
594,CSTriangle,3,398,269,399,-1,-1,-1,-1,-1,7.12006E-08,-4.16754E-09,0,-2.5614E-10,0,0
595,CSTriangle,3,336,335,400,-1,-1,-1,-1,-1,6.76854E-08,-1.59233E-08,0,5.83802E-09,0,0
596,CSTriangle,3,343,336,401,-1,-1,-1,-1,-1,7.03795E-08,-1.40367E-08,0,8.20171E-09,0,0
597,CSTriangle,3,401,336,400,-1,-1,-1,-1,-1,5.77027E-08,-1.48879E-08,0,5.66051E-09,0,0
598,CSTriangle,3,335,337,402,-1,-1,-1,-1,-1,7.50125E-08,-1.9556E-08,0,2.21885E-09,0,0
599,CSTriangle,3,400,335,402,-1,-1,-1,-1,-1,6.65592E-08,-2.0078E-08,0,4.24743E-09,0,0
600,CSTriangle,3,337,347,403,-1,-1,-1,-1,-1,7.19136E-08,-1.87048E-08,0,-2.22013E-09,0,0
601,CSTriangle,3,402,337,403,-1,-1,-1,-1,-1,7.53914E-08,-2.28815E-08,0,1.18392E-09,0,0
602,CSTriangle,3,341,323,404,-1,-1,-1,-1,-1,5.50018E-08,-1.18851E-08,0,7.56545E-09,0,0
603,CSTriangle,3,323,324,405,-1,-1,-1,-1,-1,5.43453E-08,-1.31101E-08,0,7.25596E-09,0,0
604,CSTriangle,3,404,323,405,-1,-1,-1,-1,-1,5.40844E-08,-1.39865E-08,0,7.10107E-09,0,0
605,CSTriangle,3,324,325,406,-1,-1,-1,-1,-1,6.02439E-08,-1.49106E-08,0,6.27855E-09,0,0
606,CSTriangle,3,405,324,406,-1,-1,-1,-1,-1,5.38301E-08,-1.60448E-08,0,6.49391E-09,0,0
607,CSTriangle,3,325,346,407,-1,-1,-1,-1,-1,6.06248E-08,-1.48558E-08,0,3.30877E-09,0,0
608,CSTriangle,3,406,325,407,-1,-1,-1,-1,-1,5.78827E-08,-1.81502E-08,0,4.61202E-09,0,0
609,CSTriangle,3,342,326,408,-1,-1,-1,-1,-1,1.08424E-07,-3.16706E-09,0,2.35951E-08,0,0
610,CSTriangle,3,326,327,409,-1,-1,-1,-1,-1,1.18075E-07,-2.1106E-08,0,2.44685E-08,0,0
611,CSTriangle,3,408,326,409,-1,-1,-1,-1,-1,1.16871E-07,-1.50919E-08,0,1.93081E-08,0,0
612,CSTriangle,3,327,328,410,-1,-1,-1,-1,-1,1.32358E-07,-3.38171E-08,0,1.62125E-08,0,0
613,CSTriangle,3,409,327,410,-1,-1,-1,-1,-1,1.32208E-07,-1.89401E-08,0,1.78129E-08,0,0
614,CSTriangle,3,328,345,411,-1,-1,-1,-1,-1,1.52628E-07,-3.36463E-08,0,1.4102E-09,0,0
615,CSTriangle,3,410,328,411,-1,-1,-1,-1,-1,1.56223E-07,-2.33887E-08,0,1.00845E-08,0,0
616,CSTriangle,3,330,331,412,-1,-1,-1,-1,-1,4.42061E-08,-3.89326E-09,0,4.19333E-09,0,0
617,CSTriangle,3,329,330,413,-1,-1,-1,-1,-1,4.36992E-08,-2.04634E-09,0,1.45728E-09,0,0
618,CSTriangle,3,413,330,412,-1,-1,-1,-1,-1,4.11025E-08,-3.75924E-09,0,3.24989E-09,0,0
619,CSTriangle,3,344,329,414,-1,-1,-1,-1,-1,4.65677E-08,-2.59621E-09,0,-1.93374E-09,0,0
620,CSTriangle,3,414,329,413,-1,-1,-1,-1,-1,4.47574E-08,-2.32483E-09,0,1.05811E-09,0,0
621,CSTriangle,3,331,341,415,-1,-1,-1,-1,-1,5.30785E-08,-8.43428E-09,0,6.49115E-09,0,0
622,CSTriangle,3,412,331,415,-1,-1,-1,-1,-1,4.56277E-08,-6.12864E-09,0,5.17545E-09,0,0
623,CSTriangle,3,333,334,416,-1,-1,-1,-1,-1,7.44645E-08,-1.31189E-08,0,3.90997E-10,0,0
624,CSTriangle,3,332,333,417,-1,-1,-1,-1,-1,6.32987E-08,-1.53584E-08,0,-1.13197E-09,0,0
625,CSTriangle,3,417,333,416,-1,-1,-1,-1,-1,7.38986E-08,-1.44605E-08,0,3.49726E-10,0,0
626,CSTriangle,3,346,332,418,-1,-1,-1,-1,-1,5.47175E-08,-1.63759E-08,0,7.47519E-10,0,0
627,CSTriangle,3,418,332,417,-1,-1,-1,-1,-1,6.04297E-08,-1.52326E-08,0,-1.00366E-09,0,0
628,CSTriangle,3,334,342,419,-1,-1,-1,-1,-1,9.085E-08,-1.34552E-08,0,6.64016E-09,0,0
629,CSTriangle,3,416,334,419,-1,-1,-1,-1,-1,9.36426E-08,-1.06468E-08,0,5.26051E-09,0,0
630,CSTriangle,3,339,340,420,-1,-1,-1,-1,-1,9.47263E-08,-1.09632E-08,0,-5.4E-09,0,0
631,CSTriangle,3,338,339,421,-1,-1,-1,-1,-1,1.03609E-07,-1.72061E-08,0,-1.2515E-08,0,0
632,CSTriangle,3,421,339,420,-1,-1,-1,-1,-1,1.12566E-07,-1.10435E-08,0,-6.67086E-09,0,0
633,CSTriangle,3,345,338,422,-1,-1,-1,-1,-1,1.15181E-07,-2.22357E-08,0,-1.06789E-08,0,0
634,CSTriangle,3,422,338,421,-1,-1,-1,-1,-1,1.20716E-07,-1.29646E-08,0,-1.08425E-08,0,0
635,CSTriangle,3,340,343,423,-1,-1,-1,-1,-1,8.44457E-08,-1.14345E-08,0,4.12685E-09,0,0
636,CSTriangle,3,420,340,423,-1,-1,-1,-1,-1,9.92012E-08,-1.21694E-08,0,2.4211E-09,0,0
637,CSTriangle,3,347,320,424,-1,-1,-1,-1,-1,6.31384E-08,-1.40058E-08,0,-5.04737E-09,0,0
638,CSTriangle,3,320,321,425,-1,-1,-1,-1,-1,5.84706E-08,-1.04308E-08,0,-6.302E-09,0,0
639,CSTriangle,3,424,320,425,-1,-1,-1,-1,-1,5.80492E-08,-1.27529E-08,0,-5.99361E-09,0,0
640,CSTriangle,3,321,322,426,-1,-1,-1,-1,-1,5.04986E-08,-6.41457E-09,0,-5.48813E-09,0,0
641,CSTriangle,3,425,321,426,-1,-1,-1,-1,-1,5.30142E-08,-1.01166E-08,0,-6.63507E-09,0,0
642,CSTriangle,3,322,344,427,-1,-1,-1,-1,-1,4.52363E-08,-3.31102E-09,0,-3.3198E-09,0,0
643,CSTriangle,3,426,322,427,-1,-1,-1,-1,-1,4.59131E-08,-6.34984E-09,0,-5.3797E-09,0,0
644,CSTriangle,3,357,273,353,-1,-1,-1,-1,-1,1.08006E-07,-1.34887E-08,0,2.23594E-09,0,0
645,CSTriangle,3,392,267,393,-1,-1,-1,-1,-1,6.79952E-08,-1.25719E-08,0,1.09876E-08,0,0
646,CSTriangle,3,396,271,397,-1,-1,-1,-1,-1,7.19436E-08,-1.23445E-09,0,1.4446E-10,0,0
647,CSTriangle,3,305,394,368,-1,-1,-1,-1,-1,5.67932E-08,3.96998E-09,0,-1.17657E-09,0,0
648,CSTriangle,3,299,389,388,-1,-1,-1,-1,-1,5.89411E-08,-7.21801E-09,0,-4.77428E-09,0,0
649,CSTriangle,3,297,391,390,-1,-1,-1,-1,-1,5.70578E-08,-7.52175E-09,0,3.35902E-09,0,0
650,CSTriangle,3,291,363,354,-1,-1,-1,-1,-1,1.38922E-07,-1.73055E-08,0,1.9574E-09,0,0
651,CSTriangle,3,302,386,385,-1,-1,-1,-1,-1,6.59905E-08,-1.0057E-08,0,-1.79299E-08,0,0
652,CSTriangle,3,301,387,386,-1,-1,-1,-1,-1,6.3533E-08,-8.65856E-09,0,-1.40384E-08,0,0
653,CSTriangle,3,289,373,372,-1,-1,-1,-1,-1,1.30827E-07,-1.11182E-08,0,-4.42088E-09,0,0
654,CSTriangle,3,292,354,350,-1,-1,-1,-1,-1,1.30642E-07,-2.14793E-08,0,1.04783E-08,0,0
655,CSTriangle,3,318,384,399,-1,-1,-1,-1,-1,7.35693E-08,-8.02527E-09,0,-5.51322E-09,0,0
656,CSTriangle,3,380,280,379,-1,-1,-1,-1,-1,7.35375E-08,-7.00601E-09,0,8.2488E-09,0,0
657,CSTriangle,3,279,371,379,-1,-1,-1,-1,-1,7.91067E-08,-7.85289E-09,0,1.36088E-08,0,0
658,CSTriangle,3,283,364,378,-1,-1,-1,-1,-1,1.34299E-07,-8.49231E-09,0,1.40195E-08,0,0
659,CSTriangle,3,316,356,352,-1,-1,-1,-1,-1,8.70627E-08,-2.5702E-08,0,-2.81629E-08,0,0
660,CSTriangle,3,308,366,362,-1,-1,-1,-1,-1,5.85468E-08,2.47643E-09,0,-1.19417E-09,0,0
661,CSTriangle,3,360,272,351,-1,-1,-1,-1,-1,6.63888E-08,-1.76911E-08,0,2.44694E-08,0,0
662,CSTriangle,3,287,375,374,-1,-1,-1,-1,-1,1.43605E-07,-1.33948E-08,0,2.53675E-09,0,0
663,CSTriangle,3,275,360,365,-1,-1,-1,-1,-1,7.4788E-08,-1.50591E-08,0,2.71201E-08,0,0
664,CSTriangle,3,371,278,370,-1,-1,-1,-1,-1,7.83123E-08,-8.18335E-09,0,1.81366E-08,0,0
665,CSTriangle,3,376,285,377,-1,-1,-1,-1,-1,1.38979E-07,-9.82592E-09,0,1.27789E-08,0,0
666,CSTriangle,3,377,284,378,-1,-1,-1,-1,-1,1.36716E-07,-8.21802E-09,0,1.48739E-08,0,0
667,CSTriangle,3,288,374,373,-1,-1,-1,-1,-1,1.3841E-07,-1.19429E-08,0,-2.45882E-09,0,0
668,CSTriangle,3,314,355,348,-1,-1,-1,-1,-1,7.4042E-08,-1.05926E-08,0,-5.98618E-10,0,0
669,CSTriangle,3,266,349,393,-1,-1,-1,-1,-1,5.35268E-08,-1.25151E-08,0,9.51728E-09,0,0
670,CSTriangle,3,270,398,397,-1,-1,-1,-1,-1,5.87719E-08,-2.79243E-09,0,2.30557E-10,0,0
671,CSTriangle,3,375,286,376,-1,-1,-1,-1,-1,1.42486E-07,-1.32338E-08,0,8.13594E-09,0,0
672,CSTriangle,3,282,381,382,-1,-1,-1,-1,-1,6.95969E-08,-5.8367E-09,0,1.54081E-10,0,0
673,CSTriangle,3,389,298,390,-1,-1,-1,-1,-1,5.16421E-08,-6.54637E-09,0,-3.58156E-10,0,0
674,CSTriangle,3,311,359,355,-1,-1,-1,-1,-1,6.7056E-08,-6.07163E-09,0,-2.0876E-09,0,0
675,CSTriangle,3,303,385,358,-1,-1,-1,-1,-1,7.16933E-08,-1.28304E-08,0,-2.18301E-08,0,0
676,CSTriangle,3,290,372,363,-1,-1,-1,-1,-1,1.44612E-07,-1.38019E-08,0,-3.41146E-09,0,0
677,CSTriangle,3,312,358,356,-1,-1,-1,-1,-1,7.33302E-08,-1.77034E-08,0,-2.43349E-08,0,0
678,CSTriangle,3,366,307,367,-1,-1,-1,-1,-1,5.55511E-08,3.74134E-09,0,-1.07577E-09,0,0
679,CSTriangle,3,309,362,361,-1,-1,-1,-1,-1,5.89444E-08,2.64755E-10,0,-1.55659E-09,0,0
680,CSTriangle,3,310,361,359,-1,-1,-1,-1,-1,6.2221E-08,-2.62462E-09,0,-2.0901E-09,0,0
681,CSTriangle,3,274,357,364,-1,-1,-1,-1,-1,1.30582E-07,-1.06695E-08,0,9.85335E-09,0,0
682,CSTriangle,3,304,395,394,-1,-1,-1,-1,-1,5.95459E-08,2.83863E-09,0,-9.52177E-10,0,0
683,CSTriangle,3,403,347,428,-1,-1,-1,-1,-1,7.00269E-08,-1.74712E-08,0,-1.67277E-09,0,0
684,CSTriangle,3,347,424,428,-1,-1,-1,-1,-1,6.64395E-08,-1.45128E-08,0,-3.73156E-09,0,0
685,CSTriangle,3,427,344,429,-1,-1,-1,-1,-1,4.21451E-08,-3.06534E-09,0,-3.39562E-09,0,0
686,CSTriangle,3,344,414,429,-1,-1,-1,-1,-1,4.75736E-08,-1.42774E-09,0,-1.27775E-09,0,0
687,CSTriangle,3,407,346,430,-1,-1,-1,-1,-1,4.43022E-08,-1.37067E-08,0,6.06306E-10,0,0
688,CSTriangle,3,346,418,430,-1,-1,-1,-1,-1,4.6855E-08,-1.15432E-08,0,-8.7681E-11,0,0
689,CSTriangle,3,411,345,431,-1,-1,-1,-1,-1,1.41945E-07,-2.16606E-08,0,-4.94282E-10,0,0
690,CSTriangle,3,345,422,431,-1,-1,-1,-1,-1,1.23583E-07,-1.77224E-08,0,-8.23459E-09,0,0
691,CSTriangle,3,423,343,432,-1,-1,-1,-1,-1,8.71178E-08,-1.42801E-08,0,1.04598E-08,0,0
692,CSTriangle,3,343,401,432,-1,-1,-1,-1,-1,6.93693E-08,-1.46552E-08,0,8.84359E-09,0,0
693,CSTriangle,3,419,342,433,-1,-1,-1,-1,-1,1.03141E-07,-7.46638E-09,0,1.20559E-08,0,0
694,CSTriangle,3,342,408,433,-1,-1,-1,-1,-1,1.01128E-07,-1.46025E-08,0,1.23883E-08,0,0
695,CSTriangle,3,415,341,434,-1,-1,-1,-1,-1,5.40937E-08,-9.17217E-09,0,6.21367E-09,0,0
696,CSTriangle,3,341,404,434,-1,-1,-1,-1,-1,5.84372E-08,-1.20601E-08,0,6.72954E-09,0,0
697,CSTriangle,3,353,352,435,-1,-1,-1,-1,-1,1.07431E-07,-2.89948E-08,0,-1.34267E-08,0,0
698,CSTriangle,3,357,353,435,-1,-1,-1,-1,-1,1.04284E-07,-2.08623E-08,0,-6.72973E-09,0,0
699,CSTriangle,3,352,356,435,-1,-1,-1,-1,-1,9.97289E-08,-2.75082E-08,0,-2.04731E-08,0,0
700,CSTriangle,3,349,348,436,-1,-1,-1,-1,-1,6.99678E-08,-1.3837E-08,0,6.02464E-09,0,0
701,CSTriangle,3,393,349,436,-1,-1,-1,-1,-1,5.98009E-08,-1.42976E-08,0,8.15772E-09,0,0
702,CSTriangle,3,348,355,436,-1,-1,-1,-1,-1,7.83571E-08,-1.4099E-08,0,3.77874E-09,0,0
703,CSTriangle,3,351,350,437,-1,-1,-1,-1,-1,1.00653E-07,-2.25864E-08,0,1.9907E-08,0,0
704,CSTriangle,3,360,351,437,-1,-1,-1,-1,-1,7.43121E-08,-2.29247E-08,0,2.42245E-08,0,0
705,CSTriangle,3,350,354,437,-1,-1,-1,-1,-1,1.2601E-07,-3.14808E-08,0,2.2818E-08,0,0
706,CSTriangle,3,365,360,438,-1,-1,-1,-1,-1,7.21657E-08,-1.85432E-08,0,2.40755E-08,0,0
707,CSTriangle,3,369,365,439,-1,-1,-1,-1,-1,7.53459E-08,-1.6921E-08,0,2.4047E-08,0,0
708,CSTriangle,3,439,365,438,-1,-1,-1,-1,-1,8.74052E-08,-1.56815E-08,0,2.24932E-08,0,0
709,CSTriangle,3,370,369,440,-1,-1,-1,-1,-1,7.48069E-08,-1.57478E-08,0,2.13664E-08,0,0
710,CSTriangle,3,371,370,441,-1,-1,-1,-1,-1,8.67065E-08,-1.81399E-08,0,2.01763E-08,0,0
711,CSTriangle,3,379,371,442,-1,-1,-1,-1,-1,8.65389E-08,-1.87071E-08,0,1.52782E-08,0,0
712,CSTriangle,3,380,379,443,-1,-1,-1,-1,-1,7.42535E-08,-1.55069E-08,0,8.44713E-09,0,0
713,CSTriangle,3,379,442,443,-1,-1,-1,-1,-1,9.09358E-08,-1.34591E-08,0,1.17541E-08,0,0
714,CSTriangle,3,381,380,444,-1,-1,-1,-1,-1,7.45507E-08,-1.41071E-08,0,3.8084E-09,0,0
715,CSTriangle,3,382,381,445,-1,-1,-1,-1,-1,7.39445E-08,-1.19576E-08,0,3.63372E-11,0,0
716,CSTriangle,3,383,382,446,-1,-1,-1,-1,-1,7.18096E-08,-9.79497E-09,0,-2.52724E-09,0,0
717,CSTriangle,3,384,383,447,-1,-1,-1,-1,-1,6.95964E-08,-8.02979E-09,0,-3.70733E-09,0,0
718,CSTriangle,3,447,383,446,-1,-1,-1,-1,-1,6.98224E-08,-7.7068E-09,0,-3.5091E-09,0,0
719,CSTriangle,3,364,357,448,-1,-1,-1,-1,-1,1.27019E-07,-1.67414E-08,0,2.63173E-09,0,0
720,CSTriangle,3,392,393,449,-1,-1,-1,-1,-1,6.70741E-08,-1.57016E-08,0,9.09276E-09,0,0
721,CSTriangle,3,391,392,450,-1,-1,-1,-1,-1,7.51881E-08,-1.78785E-08,0,8.12312E-09,0,0
722,CSTriangle,3,378,364,451,-1,-1,-1,-1,-1,1.39519E-07,-1.11725E-08,0,1.09571E-08,0,0
723,CSTriangle,3,390,391,452,-1,-1,-1,-1,-1,5.32489E-08,-1.24869E-08,0,3.13592E-09,0,0
724,CSTriangle,3,391,450,452,-1,-1,-1,-1,-1,7.35934E-08,-1.36641E-08,0,5.89048E-09,0,0
725,CSTriangle,3,389,390,453,-1,-1,-1,-1,-1,4.0232E-08,-9.38191E-09,0,-9.11484E-11,0,0
726,CSTriangle,3,388,389,454,-1,-1,-1,-1,-1,6.59049E-08,-1.6328E-08,0,-4.40582E-09,0,0
727,CSTriangle,3,387,388,455,-1,-1,-1,-1,-1,6.92846E-08,-1.79598E-08,0,-9.45184E-09,0,0
728,CSTriangle,3,386,387,456,-1,-1,-1,-1,-1,6.20126E-08,-1.51116E-08,0,-1.24188E-08,0,0
729,CSTriangle,3,377,378,457,-1,-1,-1,-1,-1,1.37088E-07,-8.34405E-09,0,1.3524E-08,0,0
730,CSTriangle,3,376,377,458,-1,-1,-1,-1,-1,1.45689E-07,-8.57082E-09,0,1.2996E-08,0,0
731,CSTriangle,3,375,376,459,-1,-1,-1,-1,-1,1.8049E-07,-1.2451E-08,0,1.08185E-08,0,0
732,CSTriangle,3,374,375,460,-1,-1,-1,-1,-1,1.50775E-07,-1.0159E-08,0,3.37054E-09,0,0
733,CSTriangle,3,460,375,459,-1,-1,-1,-1,-1,1.68053E-07,-2.59623E-08,0,7.43827E-09,0,0
734,CSTriangle,3,373,374,461,-1,-1,-1,-1,-1,1.337E-07,-9.59514E-09,0,-1.00391E-09,0,0
735,CSTriangle,3,372,373,462,-1,-1,-1,-1,-1,1.24808E-07,-1.08034E-08,0,-1.28773E-09,0,0
736,CSTriangle,3,462,373,461,-1,-1,-1,-1,-1,1.17802E-07,-1.40426E-08,0,-3.8425E-09,0,0
737,CSTriangle,3,385,386,463,-1,-1,-1,-1,-1,6.47858E-08,-1.56425E-08,0,-1.57099E-08,0,0
738,CSTriangle,3,463,386,456,-1,-1,-1,-1,-1,7.62673E-08,-1.30095E-08,0,-1.4035E-08,0,0
739,CSTriangle,3,363,372,464,-1,-1,-1,-1,-1,1.58224E-07,-1.83509E-08,0,2.51208E-09,0,0
740,CSTriangle,3,354,363,465,-1,-1,-1,-1,-1,1.27342E-07,-2.09351E-08,0,9.42572E-09,0,0
741,CSTriangle,3,358,385,466,-1,-1,-1,-1,-1,7.70285E-08,-2.01398E-08,0,-2.01127E-08,0,0
742,CSTriangle,3,356,358,467,-1,-1,-1,-1,-1,6.0924E-08,-1.71012E-08,0,-1.58819E-08,0,0
743,CSTriangle,3,355,359,468,-1,-1,-1,-1,-1,6.5207E-08,-6.7712E-09,0,7.09221E-10,0,0
744,CSTriangle,3,359,361,469,-1,-1,-1,-1,-1,6.4052E-08,-2.81099E-09,0,-5.41291E-11,0,0
745,CSTriangle,3,361,362,470,-1,-1,-1,-1,-1,5.73326E-08,2.71704E-10,0,-5.83285E-11,0,0
746,CSTriangle,3,362,366,471,-1,-1,-1,-1,-1,5.59535E-08,2.44105E-09,0,-8.79918E-11,0,0
747,CSTriangle,3,366,367,472,-1,-1,-1,-1,-1,6.49526E-08,4.16981E-09,0,-3.78073E-10,0,0
748,CSTriangle,3,367,368,473,-1,-1,-1,-1,-1,5.70602E-08,4.34699E-09,0,-7.98494E-10,0,0
749,CSTriangle,3,368,394,474,-1,-1,-1,-1,-1,5.4234E-08,3.76295E-09,0,-1.16385E-09,0,0
750,CSTriangle,3,394,395,475,-1,-1,-1,-1,-1,5.75607E-08,2.64463E-09,0,-1.36843E-09,0,0
751,CSTriangle,3,395,396,476,-1,-1,-1,-1,-1,8.0484E-08,1.10149E-09,0,-1.35309E-09,0,0
752,CSTriangle,3,395,476,475,-1,-1,-1,-1,-1,7.13173E-08,-1.37354E-09,0,-2.50249E-09,0,0
753,CSTriangle,3,396,397,477,-1,-1,-1,-1,-1,7.06487E-08,-8.75126E-10,0,-6.54808E-10,0,0
754,CSTriangle,3,397,398,478,-1,-1,-1,-1,-1,6.49496E-08,-3.11184E-09,0,-7.01117E-10,0,0
755,CSTriangle,3,398,399,478,-1,-1,-1,-1,-1,6.61778E-08,-7.59738E-09,0,-2.36906E-09,0,0
756,CSTriangle,3,399,384,478,-1,-1,-1,-1,-1,7.96813E-08,-7.67159E-09,0,-3.85513E-09,0,0
757,CSTriangle,3,401,400,479,-1,-1,-1,-1,-1,3.47807E-08,-7.40506E-09,0,4.93216E-09,0,0
758,CSTriangle,3,432,401,441,-1,-1,-1,-1,-1,7.82655E-08,-1.36463E-08,0,1.28466E-08,0,0
759,CSTriangle,3,401,479,441,-1,-1,-1,-1,-1,3.93481E-08,-8.76942E-09,0,6.25277E-09,0,0
760,CSTriangle,3,371,441,442,-1,-1,-1,-1,-1,9.79679E-08,-1.43588E-08,0,1.79426E-08,0,0
761,CSTriangle,3,441,479,442,-1,-1,-1,-1,-1,4.44662E-08,-9.78926E-09,0,6.97749E-09,0,0
762,CSTriangle,3,400,402,442,-1,-1,-1,-1,-1,7.30388E-08,-1.5575E-08,0,7.98653E-09,0,0
763,CSTriangle,3,479,400,442,-1,-1,-1,-1,-1,3.9682E-08,-9.15026E-09,0,5.63318E-09,0,0
764,CSTriangle,3,442,402,443,-1,-1,-1,-1,-1,8.69257E-08,-2.16838E-08,0,8.53402E-09,0,0
765,CSTriangle,3,402,403,443,-1,-1,-1,-1,-1,8.29607E-08,-1.66656E-08,0,4.90579E-09,0,0
766,CSTriangle,3,380,443,444,-1,-1,-1,-1,-1,8.10182E-08,-1.13762E-08,0,5.62043E-09,0,0
767,CSTriangle,3,443,403,444,-1,-1,-1,-1,-1,7.97247E-08,-1.93632E-08,0,3.64417E-09,0,0
768,CSTriangle,3,403,428,444,-1,-1,-1,-1,-1,7.80009E-08,-1.47436E-08,0,4.63842E-10,0,0
769,CSTriangle,3,381,444,445,-1,-1,-1,-1,-1,7.74207E-08,-1.01391E-08,0,1.16351E-09,0,0
770,CSTriangle,3,418,417,480,-1,-1,-1,-1,-1,4.52609E-08,-1.0871E-08,0,-3.34538E-09,0,0
771,CSTriangle,3,417,416,481,-1,-1,-1,-1,-1,6.74376E-08,-1.3849E-08,0,-4.76226E-09,0,0
772,CSTriangle,3,480,417,481,-1,-1,-1,-1,-1,5.18949E-08,-1.12517E-08,0,-3.1657E-09,0,0
773,CSTriangle,3,430,418,455,-1,-1,-1,-1,-1,5.25495E-08,-1.29662E-08,0,-2.78612E-09,0,0
774,CSTriangle,3,418,480,455,-1,-1,-1,-1,-1,5.46033E-08,-1.19445E-08,0,-4.05794E-09,0,0
775,CSTriangle,3,387,455,456,-1,-1,-1,-1,-1,7.91765E-08,-1.32556E-08,0,-1.12558E-08,0,0
776,CSTriangle,3,456,455,480,-1,-1,-1,-1,-1,5.39036E-08,-1.3204E-08,0,-6.56519E-09,0,0
777,CSTriangle,3,416,419,482,-1,-1,-1,-1,-1,9.2896E-08,-1.71515E-08,0,-3.10425E-09,0,0
778,CSTriangle,3,481,416,482,-1,-1,-1,-1,-1,9.11983E-08,-1.47111E-08,0,-2.99738E-09,0,0
779,CSTriangle,3,419,433,483,-1,-1,-1,-1,-1,9.02427E-08,-1.63645E-08,0,2.57151E-09,0,0
780,CSTriangle,3,482,419,483,-1,-1,-1,-1,-1,9.94359E-08,-1.24408E-08,0,1.59435E-09,0,0
781,CSTriangle,3,425,426,484,-1,-1,-1,-1,-1,5.87725E-08,-7.11047E-09,0,-4.81069E-09,0,0
782,CSTriangle,3,424,425,485,-1,-1,-1,-1,-1,6.13336E-08,-1.00034E-08,0,-4.43006E-09,0,0
783,CSTriangle,3,485,425,484,-1,-1,-1,-1,-1,6.02234E-08,-9.6076E-09,0,-5.27767E-09,0,0
784,CSTriangle,3,426,427,486,-1,-1,-1,-1,-1,4.83958E-08,-3.55988E-09,0,-3.57107E-09,0,0
785,CSTriangle,3,484,426,486,-1,-1,-1,-1,-1,5.34993E-08,-6.57177E-09,0,-4.86062E-09,0,0
786,CSTriangle,3,428,424,487,-1,-1,-1,-1,-1,6.72004E-08,-1.32198E-08,0,-3.03197E-09,0,0
787,CSTriangle,3,487,424,485,-1,-1,-1,-1,-1,6.32736E-08,-1.10865E-08,0,-4.2558E-09,0,0
788,CSTriangle,3,444,428,445,-1,-1,-1,-1,-1,7.51219E-08,-1.55609E-08,0,-1.68825E-11,0,0
789,CSTriangle,3,427,429,488,-1,-1,-1,-1,-1,3.4532E-08,-9.15044E-10,0,-1.72761E-09,0,0
790,CSTriangle,3,486,427,488,-1,-1,-1,-1,-1,3.53527E-08,-2.48649E-09,0,-2.8286E-09,0,0
791,CSTriangle,3,405,406,489,-1,-1,-1,-1,-1,5.46785E-08,-1.28639E-08,0,4.8766E-09,0,0
792,CSTriangle,3,404,405,490,-1,-1,-1,-1,-1,4.69091E-08,-1.05372E-08,0,5.12459E-09,0,0
793,CSTriangle,3,490,405,489,-1,-1,-1,-1,-1,4.64946E-08,-1.23782E-08,0,4.5732E-09,0,0
794,CSTriangle,3,406,407,491,-1,-1,-1,-1,-1,5.98603E-08,-1.36613E-08,0,2.76506E-09,0,0
795,CSTriangle,3,489,406,491,-1,-1,-1,-1,-1,5.57649E-08,-1.57688E-08,0,3.85162E-09,0,0
796,CSTriangle,3,434,404,492,-1,-1,-1,-1,-1,6.79502E-08,-1.37077E-08,0,7.29978E-09,0,0
797,CSTriangle,3,492,404,490,-1,-1,-1,-1,-1,5.73268E-08,-1.30034E-08,0,5.73184E-09,0,0
798,CSTriangle,3,407,430,454,-1,-1,-1,-1,-1,5.5944E-08,-1.19674E-08,0,-6.06335E-10,0,0
799,CSTriangle,3,454,430,455,-1,-1,-1,-1,-1,6.06399E-08,-1.63354E-08,0,-2.33063E-09,0,0
800,CSTriangle,3,388,454,455,-1,-1,-1,-1,-1,8.79016E-08,-1.53061E-08,0,-7.65931E-09,0,0
801,CSTriangle,3,407,454,491,-1,-1,-1,-1,-1,6.18428E-08,-1.6968E-08,0,8.38838E-10,0,0
802,CSTriangle,3,454,389,453,-1,-1,-1,-1,-1,5.14214E-08,-9.13153E-09,0,-1.37972E-09,0,0
803,CSTriangle,3,454,453,491,-1,-1,-1,-1,-1,5.19679E-08,-1.11885E-08,0,6.5009E-10,0,0
804,CSTriangle,3,422,421,493,-1,-1,-1,-1,-1,1.03496E-07,-1.64928E-08,0,-6.91466E-09,0,0
805,CSTriangle,3,421,420,494,-1,-1,-1,-1,-1,1.00887E-07,-1.47953E-08,0,-3.51014E-09,0,0
806,CSTriangle,3,493,421,494,-1,-1,-1,-1,-1,1.16413E-07,-1.43231E-08,0,-3.4569E-09,0,0
807,CSTriangle,3,420,423,495,-1,-1,-1,-1,-1,9.19236E-08,-1.30062E-08,0,3.51173E-09,0,0
808,CSTriangle,3,494,420,495,-1,-1,-1,-1,-1,1.04798E-07,-1.35571E-08,0,2.01194E-09,0,0
809,CSTriangle,3,431,422,496,-1,-1,-1,-1,-1,8.43263E-08,-1.30166E-08,0,-3.861E-09,0,0
810,CSTriangle,3,496,422,493,-1,-1,-1,-1,-1,8.7952E-08,-1.09897E-08,0,-4.28204E-09,0,0
811,CSTriangle,3,423,432,497,-1,-1,-1,-1,-1,8.49268E-08,-1.45202E-08,0,1.1207E-08,0,0
812,CSTriangle,3,495,423,497,-1,-1,-1,-1,-1,1.01175E-07,-1.46762E-08,0,1.0075E-08,0,0
813,CSTriangle,3,409,410,498,-1,-1,-1,-1,-1,9.47465E-08,-1.87568E-08,0,1.24725E-08,0,0
814,CSTriangle,3,408,409,499,-1,-1,-1,-1,-1,1.07478E-07,-1.48422E-08,0,1.75218E-08,0,0
815,CSTriangle,3,499,409,498,-1,-1,-1,-1,-1,9.51215E-08,-1.25991E-08,0,1.15219E-08,0,0
816,CSTriangle,3,410,411,459,-1,-1,-1,-1,-1,1.58509E-07,-3.16596E-08,0,1.07025E-08,0,0
817,CSTriangle,3,411,431,460,-1,-1,-1,-1,-1,1.35733E-07,-2.44302E-08,0,3.29294E-10,0,0
818,CSTriangle,3,498,410,459,-1,-1,-1,-1,-1,1.24463E-07,-1.75752E-08,0,1.19252E-08,0,0
819,CSTriangle,3,411,460,459,-1,-1,-1,-1,-1,1.77706E-07,-2.13986E-08,0,6.94183E-09,0,0
820,CSTriangle,3,459,376,458,-1,-1,-1,-1,-1,1.62549E-07,-2.14215E-08,0,1.42317E-08,0,0
821,CSTriangle,3,460,431,461,-1,-1,-1,-1,-1,1.26852E-07,-1.45819E-08,0,-7.21911E-10,0,0
822,CSTriangle,3,431,496,461,-1,-1,-1,-1,-1,8.7575E-08,-1.2477E-08,0,-3.45813E-09,0,0
823,CSTriangle,3,374,460,461,-1,-1,-1,-1,-1,1.28728E-07,-1.77317E-08,0,-7.29528E-10,0,0
824,CSTriangle,3,461,496,462,-1,-1,-1,-1,-1,8.9593E-08,-9.95549E-09,0,-1.96874E-09,0,0
825,CSTriangle,3,413,412,500,-1,-1,-1,-1,-1,3.51939E-08,-1.50613E-09,0,1.51153E-09,0,0
826,CSTriangle,3,414,413,472,-1,-1,-1,-1,-1,5.50331E-08,-8.43272E-10,0,-4.84484E-11,0,0
827,CSTriangle,3,413,500,472,-1,-1,-1,-1,-1,4.23988E-08,-1.6782E-09,0,1.68203E-09,0,0
828,CSTriangle,3,366,472,471,-1,-1,-1,-1,-1,6.08942E-08,8.081E-11,0,4.09038E-10,0,0
829,CSTriangle,3,429,414,473,-1,-1,-1,-1,-1,4.85803E-08,-7.65745E-10,0,-1.81137E-09,0,0
830,CSTriangle,3,473,414,472,-1,-1,-1,-1,-1,5.97852E-08,5.15698E-10,0,1.10056E-10,0,0
831,CSTriangle,3,472,367,473,-1,-1,-1,-1,-1,6.57915E-08,1.64082E-09,0,-1.01998E-09,0,0
832,CSTriangle,3,415,434,501,-1,-1,-1,-1,-1,5.51177E-08,-8.19313E-09,0,4.5466E-09,0,0
833,CSTriangle,3,412,415,502,-1,-1,-1,-1,-1,4.53447E-08,-4.35752E-09,0,3.36749E-09,0,0
834,CSTriangle,3,502,415,501,-1,-1,-1,-1,-1,4.72232E-08,-4.95818E-09,0,3.51033E-09,0,0
835,CSTriangle,3,500,412,502,-1,-1,-1,-1,-1,3.47596E-08,-2.36914E-09,0,2.17631E-09,0,0
836,CSTriangle,3,429,473,474,-1,-1,-1,-1,-1,4.73496E-08,8.75815E-10,0,-1.28533E-09,0,0
837,CSTriangle,3,488,429,474,-1,-1,-1,-1,-1,3.43691E-08,-8.98119E-10,0,-1.89166E-09,0,0
838,CSTriangle,3,473,368,474,-1,-1,-1,-1,-1,5.11389E-08,1.18906E-09,0,-1.61116E-09,0,0
839,CSTriangle,3,474,394,475,-1,-1,-1,-1,-1,5.10908E-08,4.82807E-10,0,-1.77323E-09,0,0
840,CSTriangle,3,466,385,463,-1,-1,-1,-1,-1,8.94345E-08,-1.67571E-08,0,-1.76425E-08,0,0
841,CSTriangle,3,450,392,449,-1,-1,-1,-1,-1,8.49503E-08,-1.67299E-08,0,9.65463E-09,0,0
842,CSTriangle,3,356,467,435,-1,-1,-1,-1,-1,9.04084E-08,-2.40826E-08,0,-1.80959E-08,0,0
843,CSTriangle,3,476,396,477,-1,-1,-1,-1,-1,8.0958E-08,-5.00425E-09,0,-2.7392E-09,0,0
844,CSTriangle,3,397,478,477,-1,-1,-1,-1,-1,7.69621E-08,-5.9166E-09,0,-2.05101E-09,0,0
845,CSTriangle,3,355,468,436,-1,-1,-1,-1,-1,8.15883E-08,-1.22737E-08,0,2.36628E-09,0,0
846,CSTriangle,3,358,466,467,-1,-1,-1,-1,-1,8.22824E-08,-1.59072E-08,0,-1.48078E-08,0,0
847,CSTriangle,3,438,360,437,-1,-1,-1,-1,-1,1.00952E-07,-2.2916E-08,0,2.54277E-08,0,0
848,CSTriangle,3,370,440,441,-1,-1,-1,-1,-1,9.65989E-08,-1.37532E-08,0,2.10977E-08,0,0
849,CSTriangle,3,432,441,440,-1,-1,-1,-1,-1,8.81223E-08,-1.79499E-08,0,1.78976E-08,0,0
850,CSTriangle,3,440,369,439,-1,-1,-1,-1,-1,8.79584E-08,-1.33543E-08,0,2.16227E-08,0,0
851,CSTriangle,3,361,470,469,-1,-1,-1,-1,-1,6.00183E-08,-3.93428E-09,0,4.31697E-10,0,0
852,CSTriangle,3,433,408,503,-1,-1,-1,-1,-1,1.09595E-07,-9.40432E-09,0,1.59537E-08,0,0
853,CSTriangle,3,503,408,499,-1,-1,-1,-1,-1,1.07984E-07,-1.45224E-08,0,1.31919E-08,0,0
854,CSTriangle,3,497,432,440,-1,-1,-1,-1,-1,9.17933E-08,-1.43718E-08,0,1.6352E-08,0,0
855,CSTriangle,3,390,452,453,-1,-1,-1,-1,-1,4.47788E-08,-7.51882E-09,0,1.2416E-09,0,0
856,CSTriangle,3,354,465,437,-1,-1,-1,-1,-1,1.46995E-07,-2.48865E-08,0,1.30071E-08,0,0
857,CSTriangle,3,372,462,464,-1,-1,-1,-1,-1,1.50273E-07,-1.79048E-08,0,-4.28696E-09,0,0
858,CSTriangle,3,384,447,478,-1,-1,-1,-1,-1,7.55385E-08,-8.23866E-09,0,-4.25491E-09,0,0
859,CSTriangle,3,428,487,445,-1,-1,-1,-1,-1,7.19901E-08,-1.18273E-08,0,-2.17098E-09,0,0
860,CSTriangle,3,382,445,446,-1,-1,-1,-1,-1,7.38326E-08,-8.80367E-09,0,-1.88623E-09,0,0
861,CSTriangle,3,363,464,465,-1,-1,-1,-1,-1,1.61564E-07,-2.16177E-08,0,2.67158E-09,0,0
862,CSTriangle,3,359,469,468,-1,-1,-1,-1,-1,6.66643E-08,-7.46361E-09,0,6.71633E-10,0,0
863,CSTriangle,3,364,448,451,-1,-1,-1,-1,-1,1.42915E-07,-1.62482E-08,0,1.1583E-08,0,0
864,CSTriangle,3,449,393,436,-1,-1,-1,-1,-1,8.01261E-08,-1.71939E-08,0,9.61812E-09,0,0
865,CSTriangle,3,448,357,435,-1,-1,-1,-1,-1,1.51785E-07,-2.21324E-08,0,1.50425E-09,0,0
866,CSTriangle,3,457,378,451,-1,-1,-1,-1,-1,1.34362E-07,-1.39813E-08,0,1.50874E-08,0,0
867,CSTriangle,3,470,362,471,-1,-1,-1,-1,-1,5.3289E-08,-1.49556E-09,0,4.39535E-10,0,0
868,CSTriangle,3,472,500,471,-1,-1,-1,-1,-1,4.39159E-08,1.26327E-10,0,7.58035E-10,0,0
869,CSTriangle,3,377,457,458,-1,-1,-1,-1,-1,1.30061E-07,-1.5051E-08,0,1.44537E-08,0,0
870,CSTriangle,3,488,474,475,-1,-1,-1,-1,-1,3.72687E-08,1.03768E-10,0,-1.65205E-09,0,0
871,CSTriangle,3,500,502,471,-1,-1,-1,-1,-1,3.72763E-08,-1.90086E-09,0,1.43794E-09,0,0
872,CSTriangle,3,498,459,458,-1,-1,-1,-1,-1,1.20972E-07,-1.55568E-08,0,1.19714E-08,0,0
873,CSTriangle,3,456,480,481,-1,-1,-1,-1,-1,5.38021E-08,-9.96926E-09,0,-6.59703E-09,0,0
874,CSTriangle,3,463,456,481,-1,-1,-1,-1,-1,7.03404E-08,-1.44515E-08,0,-9.32818E-09,0,0
875,CSTriangle,3,501,434,504,-1,-1,-1,-1,-1,5.81306E-08,-8.35767E-09,0,4.5063E-09,0,0
876,CSTriangle,3,434,492,504,-1,-1,-1,-1,-1,7.11502E-08,-1.34638E-08,0,5.78969E-09,0,0
877,CSTriangle,3,499,498,458,-1,-1,-1,-1,-1,9.54396E-08,-1.39224E-08,0,1.19255E-08,0,0
878,CSTriangle,3,458,457,499,-1,-1,-1,-1,-1,1.22816E-07,-1.3974E-08,0,1.34661E-08,0,0
879,CSTriangle,3,496,493,462,-1,-1,-1,-1,-1,8.51683E-08,-1.22368E-08,0,-4.13145E-09,0,0
880,CSTriangle,3,503,499,457,-1,-1,-1,-1,-1,1.16243E-07,-1.40468E-08,0,1.53531E-08,0,0
881,CSTriangle,3,486,488,475,-1,-1,-1,-1,-1,3.8921E-08,-1.23494E-09,0,-2.06823E-09,0,0
882,CSTriangle,3,481,482,463,-1,-1,-1,-1,-1,8.96394E-08,-1.72604E-08,0,-1.15543E-08,0,0
883,CSTriangle,3,466,463,482,-1,-1,-1,-1,-1,9.52864E-08,-1.83053E-08,0,-1.16273E-08,0,0
884,CSTriangle,3,482,483,505,-1,-1,-1,-1,-1,5.26878E-08,-9.61005E-09,0,-2.57035E-09,0,0
885,CSTriangle,3,464,462,493,-1,-1,-1,-1,-1,1.3738E-07,-1.78133E-08,0,-1.30802E-09,0,0
886,CSTriangle,3,493,494,464,-1,-1,-1,-1,-1,1.30469E-07,-1.86655E-08,0,-2.72789E-09,0,0
887,CSTriangle,3,475,476,486,-1,-1,-1,-1,-1,6.32398E-08,-2.6819E-09,0,-3.66474E-09,0,0
888,CSTriangle,3,484,486,476,-1,-1,-1,-1,-1,6.97248E-08,-4.44027E-09,0,-3.75166E-09,0,0
889,CSTriangle,3,476,477,506,-1,-1,-1,-1,-1,7.60224E-08,-3.97438E-09,0,-2.86048E-09,0,0
890,CSTriangle,3,477,478,507,-1,-1,-1,-1,-1,5.92873E-08,-4.75208E-09,0,-2.43007E-09,0,0
891,CSTriangle,3,478,447,507,-1,-1,-1,-1,-1,5.88033E-08,-6.00589E-09,0,-2.59348E-09,0,0
892,CSTriangle,3,453,452,491,-1,-1,-1,-1,-1,4.30306E-08,-1.08257E-08,0,1.42603E-09,0,0
893,CSTriangle,3,489,491,452,-1,-1,-1,-1,-1,5.65321E-08,-1.21311E-08,0,3.27728E-09,0,0
894,CSTriangle,3,452,450,489,-1,-1,-1,-1,-1,6.70516E-08,-1.66798E-08,0,5.05034E-09,0,0
895,CSTriangle,3,490,489,450,-1,-1,-1,-1,-1,5.79208E-08,-1.30395E-08,0,5.35405E-09,0,0
896,CSTriangle,3,492,490,450,-1,-1,-1,-1,-1,6.87222E-08,-1.55103E-08,0,6.92215E-09,0,0
897,CSTriangle,3,450,449,492,-1,-1,-1,-1,-1,9.00494E-08,-1.96877E-08,0,8.93299E-09,0,0
898,CSTriangle,3,449,436,508,-1,-1,-1,-1,-1,6.52662E-08,-1.19793E-08,0,5.08831E-09,0,0
899,CSTriangle,3,436,468,508,-1,-1,-1,-1,-1,6.10082E-08,-1.17477E-08,0,4.53579E-09,0,0
900,CSTriangle,3,457,451,503,-1,-1,-1,-1,-1,1.27747E-07,-1.56546E-08,0,1.18512E-08,0,0
901,CSTriangle,3,433,503,509,-1,-1,-1,-1,-1,1.13304E-07,-1.73752E-08,0,8.69321E-09,0,0
902,CSTriangle,3,483,433,509,-1,-1,-1,-1,-1,1.11106E-07,-1.18087E-08,0,7.93527E-09,0,0
903,CSTriangle,3,483,509,510,-1,-1,-1,-1,-1,1.09003E-07,-2.24443E-08,0,-1.73802E-09,0,0
904,CSTriangle,3,509,503,451,-1,-1,-1,-1,-1,1.25617E-07,-1.34924E-08,0,1.29214E-08,0,0
905,CSTriangle,3,440,439,497,-1,-1,-1,-1,-1,8.47706E-08,-1.6616E-08,0,1.82156E-08,0,0
906,CSTriangle,3,451,448,509,-1,-1,-1,-1,-1,1.24202E-07,-1.97859E-08,0,4.49356E-09,0,0
907,CSTriangle,3,448,435,510,-1,-1,-1,-1,-1,1.44895E-07,-3.33339E-08,0,-1.03912E-08,0,0
908,CSTriangle,3,435,467,510,-1,-1,-1,-1,-1,1.11108E-07,-1.97502E-08,0,-7.80858E-09,0,0
909,CSTriangle,3,467,466,510,-1,-1,-1,-1,-1,8.43878E-08,-2.17711E-08,0,-1.31072E-08,0,0
910,CSTriangle,3,465,464,511,-1,-1,-1,-1,-1,1.30865E-07,-2.18293E-08,0,7.17785E-09,0,0
911,CSTriangle,3,437,465,512,-1,-1,-1,-1,-1,9.30447E-08,-2.22109E-08,0,1.48987E-08,0,0
912,CSTriangle,3,438,437,512,-1,-1,-1,-1,-1,8.36964E-08,-1.63166E-08,0,1.40968E-08,0,0
913,CSTriangle,3,439,438,513,-1,-1,-1,-1,-1,8.18256E-08,-1.6985E-08,0,1.73519E-08,0,0
914,CSTriangle,3,446,445,487,-1,-1,-1,-1,-1,6.81126E-08,-1.13374E-08,0,-2.11432E-09,0,0
915,CSTriangle,3,447,446,514,-1,-1,-1,-1,-1,6.12212E-08,-8.03429E-09,0,-2.84493E-09,0,0
916,CSTriangle,3,470,471,502,-1,-1,-1,-1,-1,4.77166E-08,-1.54863E-09,0,1.55548E-09,0,0
917,CSTriangle,3,502,501,470,-1,-1,-1,-1,-1,4.99588E-08,-4.35232E-09,0,2.18725E-09,0,0
918,CSTriangle,3,469,470,501,-1,-1,-1,-1,-1,5.41983E-08,-4.2877E-09,0,2.17386E-09,0,0
919,CSTriangle,3,501,504,469,-1,-1,-1,-1,-1,5.7694E-08,-7.49895E-09,0,2.70489E-09,0,0
920,CSTriangle,3,468,469,504,-1,-1,-1,-1,-1,5.94051E-08,-7.25679E-09,0,2.66567E-09,0,0
921,CSTriangle,3,504,492,508,-1,-1,-1,-1,-1,6.00412E-08,-1.06406E-08,0,4.87667E-09,0,0
922,CSTriangle,3,507,447,514,-1,-1,-1,-1,-1,4.91835E-08,-5.852E-09,0,-2.67788E-09,0,0
923,CSTriangle,3,438,512,513,-1,-1,-1,-1,-1,7.47005E-08,-1.43805E-08,0,1.24652E-08,0,0
924,CSTriangle,3,505,483,510,-1,-1,-1,-1,-1,5.78009E-08,-8.29195E-09,0,-1.2085E-09,0,0
925,CSTriangle,3,510,466,505,-1,-1,-1,-1,-1,6.62537E-08,-1.17525E-08,0,-4.97897E-09,0,0
926,CSTriangle,3,506,477,507,-1,-1,-1,-1,-1,5.11391E-08,-5.33186E-09,0,-2.76799E-09,0,0
927,CSTriangle,3,514,446,487,-1,-1,-1,-1,-1,6.29668E-08,-8.73735E-09,0,-3.17165E-09,0,0
928,CSTriangle,3,487,485,514,-1,-1,-1,-1,-1,6.08037E-08,-8.83045E-09,0,-3.17223E-09,0,0
929,CSTriangle,3,485,484,506,-1,-1,-1,-1,-1,6.24731E-08,-6.50462E-09,0,-3.54163E-09,0,0
930,CSTriangle,3,514,485,506,-1,-1,-1,-1,-1,5.9619E-08,-8.10656E-09,0,-3.89126E-09,0,0
931,CSTriangle,3,482,505,466,-1,-1,-1,-1,-1,6.18221E-08,-1.29193E-08,0,-6.34438E-09,0,0
932,CSTriangle,3,439,513,497,-1,-1,-1,-1,-1,9.20706E-08,-1.50517E-08,0,1.58709E-08,0,0
933,CSTriangle,3,495,497,513,-1,-1,-1,-1,-1,9.33878E-08,-1.6826E-08,0,1.18816E-08,0,0
934,CSTriangle,3,494,495,511,-1,-1,-1,-1,-1,9.68606E-08,-1.60478E-08,0,4.49302E-09,0,0
935,CSTriangle,3,476,506,484,-1,-1,-1,-1,-1,7.23192E-08,-7.65867E-09,0,-4.83915E-09,0,0
936,CSTriangle,3,449,508,492,-1,-1,-1,-1,-1,6.47207E-08,-1.36956E-08,0,6.07453E-09,0,0
937,CSTriangle,3,511,464,494,-1,-1,-1,-1,-1,1.4186E-07,-1.99077E-08,0,3.59034E-09,0,0
938,CSTriangle,3,448,510,509,-1,-1,-1,-1,-1,1.46314E-07,-1.9288E-08,0,4.9464E-09,0,0
939,CSTriangle,3,504,508,468,-1,-1,-1,-1,-1,5.40511E-08,-8.83289E-09,0,2.93735E-09,0,0
940,CSTriangle,3,495,513,511,-1,-1,-1,-1,-1,1.03644E-07,-1.57879E-08,0,8.97819E-09,0,0
941,CSTriangle,3,465,511,512,-1,-1,-1,-1,-1,9.32218E-08,-1.46586E-08,0,7.31256E-09,0,0
942,CSTriangle,3,513,512,511,-1,-1,-1,-1,-1,7.42959E-08,-1.49512E-08,0,9.36666E-09,0,0
943,CSTriangle,3,507,514,506,-1,-1,-1,-1,-1,4.92375E-08,-5.03633E-09,0,-2.34306E-09,0,0
